p cnf 1776 3776
w 1 0.5
w 2 0.5
w 3 0.5
w 4 0.5
w 5 0.5
w 6 0.5
w 7 0.5
w 8 0.5
w 9 0.5
w 10 0.5
w 11 0.5
w 12 0.5
w 13 0.5
w 14 0.5
w 15 0.5
w 16 0.5
w 17 0.5
w 18 0.5
w 19 0.5
w 20 0.5
w 21 0.5
w 22 0.5
w 23 0.5
w 24 0.5
w 25 0.5
w 26 0.5
w 27 0.5
w 28 0.5
w 29 0.5
w 30 0.5
w 31 0.5
w 32 0.5
w 33 0.5
w 34 0.5
w 35 0.5
w 36 0.5
w 37 0.7116730352022048
w 38 0.5
w 39 0.5
w 40 0.5
w 41 0.5
w 42 0.5
w 43 0.5
w 44 0.5
w 45 0.5
w 46 0.3299708757197677
w 47 0.5
w 48 0.5
w 49 0.5
w 50 0.5
w 51 0.5
w 52 0.5
w 53 0.5
w 54 0.5
w 55 0.5
w 56 0.34507580458616166
w 57 0.5
w 58 0.5
w 59 0.5
w 60 0.5
w 61 0.5
w 62 0.5
w 63 0.5
w 64 0.5
w 65 0.5
w 66 0.5
w 67 0.5
w 68 0.5
w 69 0.5
w 70 0.5
w 71 0.5
w 72 0.5
w 73 0.5
w 74 0.5
w 75 0.5
w 76 0.7061750749449267
w 77 0.5
w 78 0.5
w 79 0.49997282365864526
w 80 0.5
w 81 0.5
w 82 0.5
w 83 0.5
w 84 0.5
w 85 0.5
w 86 0.5
w 87 0.5
w 88 0.5
w 89 0.5
w 90 0.5
w 91 0.5
w 92 0.5
w 93 0.5
w 94 0.5
w 95 0.5
w 96 0.5
w 97 0.5
w 98 0.5
w 99 0.5
w 100 0.5
w 101 0.5
w 102 0.5
w 103 0.5
w 104 0.5
w 105 0.5
w 106 0.5
w 107 0.5
w 108 0.5
w 109 0.5
w 110 0.5
w 111 0.5
w 112 0.5
w 113 0.5
w 114 0.5
w 115 0.5
w 116 0.5
w 117 0.5
w 118 0.5
w 119 0.5
w 120 0.5
w 121 0.5
w 122 0.5
w 123 0.5
w 124 0.5
w 125 0.5
w 126 0.5
w 127 0.5
w 128 0.5
w 129 0.5
w 130 0.5
w 131 0.5
w 132 0.5
w 133 0.5
w 134 0.5
w 135 0.5
w 136 0.5
w 137 0.5
w 138 0.5
w 139 0.5
w 140 0.5
w 141 0.5
w 142 0.5
w 143 0.5
w 144 0.5
w 145 0.5
w 146 0.5
w 147 0.5341776428194138
w 148 0.5
w 149 0.5
w 150 0.5
w 151 0.5
w 152 0.5
w 153 0.5
w 154 0.5
w 155 0.5
w 156 0.5
w 157 0.5
w 158 0.5
w 159 0.5
w 160 0.5
w 161 0.5
w 162 0.5
w 163 0.5
w 164 0.5
w 165 0.5
w 166 0.5
w 167 0.5
w 168 0.5
w 169 0.5
w 170 0.5
w 171 0.5
w 172 0.5
w 173 0.5
w 174 0.5
w 175 0.5
w 176 0.5
w 177 0.5
w 178 0.5
w 179 0.5
w 180 0.5
w 181 0.5
w 182 0.5
w 183 0.5
w 184 0.5
w 185 0.5
w 186 0.5
w 187 0.5
w 188 0.5
w 189 0.5
w 190 0.5
w 191 0.5
w 192 0.5
w 193 0.5
w 194 0.5
w 195 0.5
w 196 0.5
w 197 0.5
w 198 0.5
w 199 0.5
w 200 0.5
w 201 0.5
w 202 0.5
w 203 0.5
w 204 0.5
w 205 0.5
w 206 0.5
w 207 0.5
w 208 0.5
w 209 0.5
w 210 0.5
w 211 0.5
w 212 0.5
w 213 0.5
w 214 0.5
w 215 0.7009811797887302
w 216 0.5
w 217 0.5
w 218 0.5
w 219 0.5
w 220 0.5
w 221 0.5
w 222 0.5
w 223 0.5
w 224 0.5
w 225 0.5
w 226 0.5
w 227 0.5
w 228 0.5
w 229 0.5
w 230 0.5
w 231 0.5
w 232 0.5
w 233 0.5
w 234 0.5
w 235 0.5
w 236 0.5
w 237 0.5
w 238 0.5
w 239 0.5
w 240 0.5
w 241 0.5
w 242 0.5
w 243 0.5
w 244 0.5
w 245 0.5
w 246 0.5
w 247 0.5
w 248 0.5
w 249 0.5
w 250 0.5
w 251 0.5
w 252 0.5
w 253 0.5
w 254 0.5
w 255 0.5
w 256 0.5
w 257 0.5
w 258 0.5
w 259 0.5
w 260 0.5
w 261 0.5
w 262 0.5
w 263 0.5
w 264 0.5
w 265 0.5
w 266 0.5
w 267 0.5
w 268 0.5
w 269 0.5
w 270 0.5
w 271 0.5
w 272 0.5
w 273 0.5
w 274 0.5
w 275 0.5
w 276 0.5
w 277 0.5
w 278 0.5
w 279 0.5
w 280 0.5
w 281 0.5
w 282 0.5
w 283 0.5
w 284 0.5
w 285 0.5
w 286 0.5
w 287 0.5
w 288 0.5
w 289 0.5
w 290 0.5
w 291 0.5
w 292 0.5
w 293 0.5
w 294 0.5
w 295 0.5
w 296 0.5
w 297 0.5
w 298 0.5
w 299 0.5
w 300 0.5
w 301 0.5
w 302 0.6531721809369552
w 303 0.5
w 304 0.5
w 305 0.5
w 306 0.5
w 307 0.5
w 308 0.5
w 309 0.5
w 310 0.5
w 311 0.5
w 312 0.5
w 313 0.230213887712826
w 314 0.5
w 315 0.5
w 316 0.5
w 317 0.5
w 318 0.5
w 319 0.5
w 320 0.5
w 321 0.5
w 322 0.5
w 323 0.5
w 324 0.5
w 325 0.5
w 326 0.5
w 327 0.5
w 328 0.5
w 329 0.5
w 330 0.5
w 331 0.5
w 332 0.5
w 333 0.5
w 334 0.5
w 335 0.5
w 336 0.5
w 337 0.5
w 338 0.5
w 339 0.5
w 340 0.5
w 341 0.5
w 342 0.5
w 343 0.5
w 344 0.5
w 345 0.5
w 346 0.5
w 347 0.5
w 348 0.5
w 349 0.5
w 350 0.5
w 351 0.5808644985506788
w 352 0.5
w 353 0.5
w 354 0.5
w 355 0.5
w 356 0.5
w 357 0.5
w 358 0.5
w 359 0.5
w 360 0.5
w 361 0.5
w 362 0.5
w 363 0.5
w 364 0.5
w 365 0.5
w 366 0.5
w 367 0.5
w 368 0.5
w 369 0.5
w 370 0.5
w 371 0.5
w 372 0.5
w 373 0.5
w 374 0.5
w 375 0.5
w 376 0.5
w 377 0.5
w 378 0.5
w 379 0.5
w 380 0.5
w 381 0.5
w 382 0.5
w 383 0.5
w 384 0.5
w 385 0.5
w 386 0.5
w 387 0.5
w 388 0.5
w 389 0.5
w 390 0.5
w 391 0.5
w 392 0.5
w 393 0.5
w 394 0.5
w 395 0.5
w 396 0.5
w 397 0.5
w 398 0.5
w 399 0.5
w 400 0.5
w 401 0.5
w 402 0.5
w 403 0.5
w 404 0.5
w 405 0.5
w 406 0.5
w 407 0.5
w 408 0.5
w 409 0.5
w 410 0.5
w 411 0.5
w 412 0.5
w 413 0.5
w 414 0.5
w 415 0.5
w 416 0.5
w 417 0.5
w 418 0.5
w 419 0.5
w 420 0.5
w 421 0.5
w 422 0.5
w 423 0.5
w 424 0.5
w 425 0.7876890866709889
w 426 0.5
w 427 0.5
w 428 0.5
w 429 0.5
w 430 0.5
w 431 0.5
w 432 0.5
w 433 0.5
w 434 0.5
w 435 0.5
w 436 0.5
w 437 0.5
w 438 0.5
w 439 0.5
w 440 0.5
w 441 0.5
w 442 0.5
w 443 0.5
w 444 0.5
w 445 0.5
w 446 0.5
w 447 0.5
w 448 0.5
w 449 0.5
w 450 0.7775155847454869
w 451 0.5
w 452 0.5
w 453 0.5
w 454 0.5
w 455 0.5
w 456 0.5
w 457 0.5
w 458 0.5
w 459 0.5
w 460 0.5
w 461 0.5
w 462 0.5
w 463 0.5
w 464 0.5
w 465 0.5
w 466 0.5
w 467 0.5
w 468 0.5
w 469 0.5623356504436765
w 470 0.5
w 471 0.5
w 472 0.5
w 473 0.796614733061987
w 474 0.5
w 475 0.5
w 476 0.5
w 477 0.5
w 478 0.5
w 479 0.5
w 480 0.5
w 481 0.5
w 482 0.5
w 483 0.5
w 484 0.5
w 485 0.5
w 486 0.5
w 487 0.5
w 488 0.5
w 489 0.5
w 490 0.5
w 491 0.5
w 492 0.5
w 493 0.5
w 494 0.5
w 495 0.5
w 496 0.5
w 497 0.5
w 498 0.5
w 499 0.5
w 500 0.5
w 501 0.5
w 502 0.5
w 503 0.5
w 504 0.5
w 505 0.5
w 506 0.5
w 507 0.5
w 508 0.5
w 509 0.5
w 510 0.5
w 511 0.5
w 512 0.5
w 513 0.5
w 514 0.5
w 515 0.5
w 516 0.5
w 517 0.5
w 518 0.5
w 519 0.5
w 520 0.5
w 521 0.5
w 522 0.5
w 523 0.5
w 524 0.5
w 525 0.5
w 526 0.5
w 527 0.5
w 528 0.5
w 529 0.5
w 530 0.5
w 531 0.5
w 532 0.5
w 533 0.13031962858598076
w 534 0.5
w 535 0.5
w 536 0.5
w 537 0.5
w 538 0.5
w 539 0.5
w 540 0.5
w 541 0.5
w 542 0.5
w 543 0.5
w 544 0.5
w 545 0.48254471838478935
w 546 0.5
w 547 0.5
w 548 0.5
w 549 0.5
w 550 0.5
w 551 0.5
w 552 0.5
w 553 0.5
w 554 0.5
w 555 0.5
w 556 0.5
w 557 0.5
w 558 0.5
w 559 0.5
w 560 0.5
w 561 0.5
w 562 0.5
w 563 0.5
w 564 0.5
w 565 0.5
w 566 0.5
w 567 0.5
w 568 0.5
w 569 0.5
w 570 0.8793209544610167
w 571 0.5
w 572 0.5
w 573 0.5
w 574 0.5
w 575 0.5
w 576 0.7484940872015193
w 577 0.5
w 578 0.5
w 579 0.7166743849455678
w 580 0.5
w 581 0.5
w 582 0.5
w 583 0.5
w 584 0.5
w 585 0.5
w 586 0.5
w 587 0.5
w 588 0.5
w 589 0.5
w 590 0.5
w 591 0.5
w 592 0.5
w 593 0.5
w 594 0.5
w 595 0.5
w 596 0.5
w 597 0.5
w 598 0.5
w 599 0.5
w 600 0.5
w 601 0.5
w 602 0.5
w 603 0.5
w 604 0.5
w 605 0.5
w 606 0.5
w 607 0.5
w 608 0.5
w 609 0.5
w 610 0.5
w 611 0.5
w 612 0.5
w 613 0.5
w 614 0.3771712875822293
w 615 0.5
w 616 0.5
w 617 0.5
w 618 0.5
w 619 0.5
w 620 0.5
w 621 0.5
w 622 0.5
w 623 0.5
w 624 0.5
w 625 0.5
w 626 0.5
w 627 0.5
w 628 0.5
w 629 0.5
w 630 0.5
w 631 0.5
w 632 0.5
w 633 0.5
w 634 0.5
w 635 0.5
w 636 0.5
w 637 0.5
w 638 0.5
w 639 0.5
w 640 0.5
w 641 0.5
w 642 0.5
w 643 0.5
w 644 0.5
w 645 0.5
w 646 0.5
w 647 0.5
w 648 0.5
w 649 0.5
w 650 0.5
w 651 0.5
w 652 0.5
w 653 0.5
w 654 0.5
w 655 0.5
w 656 0.5
w 657 0.12632070059382386
w 658 0.5
w 659 0.5
w 660 0.5
w 661 0.5
w 662 0.5
w 663 0.5637826656161112
w 664 0.5
w 665 0.5
w 666 0.5
w 667 0.5
w 668 0.5
w 669 0.5
w 670 0.5
w 671 0.5
w 672 0.5
w 673 0.5
w 674 0.5
w 675 0.5
w 676 0.5
w 677 0.5
w 678 0.5
w 679 0.5
w 680 0.5
w 681 0.5
w 682 0.5
w 683 0.5
w 684 0.5
w 685 0.5
w 686 0.5
w 687 0.5
w 688 0.5
w 689 0.5
w 690 0.5
w 691 0.5
w 692 0.5
w 693 0.5
w 694 0.5
w 695 0.5
w 696 0.5
w 697 0.7266164302139807
w 698 0.5
w 699 0.5
w 700 0.5
w 701 0.5
w 702 0.5
w 703 0.5
w 704 0.5
w 705 0.5
w 706 0.5
w 707 0.5
w 708 0.5
w 709 0.5
w 710 0.5
w 711 0.5
w 712 0.4830149513592207
w 713 0.5
w 714 0.5
w 715 0.5
w 716 0.5
w 717 0.5
w 718 0.5
w 719 0.5
w 720 0.5
w 721 0.5
w 722 0.5
w 723 0.5
w 724 0.5
w 725 0.5
w 726 0.5
w 727 0.5
w 728 0.5
w 729 0.5
w 730 0.5
w 731 0.5
w 732 0.5
w 733 0.5
w 734 0.5
w 735 0.5
w 736 0.5
w 737 0.5
w 738 0.5
w 739 0.22315365873438675
w 740 0.5
w 741 0.5
w 742 0.5
w 743 0.5
w 744 0.5
w 745 0.5
w 746 0.5
w 747 0.5
w 748 0.5
w 749 0.5
w 750 0.5
w 751 0.5
w 752 0.5
w 753 0.5
w 754 0.5
w 755 0.5
w 756 0.5
w 757 0.5
w 758 0.5
w 759 0.5
w 760 0.5
w 761 0.5
w 762 0.5
w 763 0.5
w 764 0.5
w 765 0.5
w 766 0.5
w 767 0.5
w 768 0.5
w 769 0.5
w 770 0.5
w 771 0.5
w 772 0.5
w 773 0.5
w 774 0.5
w 775 0.5
w 776 0.5
w 777 0.5
w 778 0.5
w 779 0.5
w 780 0.5
w 781 0.5
w 782 0.5
w 783 0.5
w 784 0.5
w 785 0.5
w 786 0.5
w 787 0.5
w 788 0.5
w 789 0.5
w 790 0.5
w 791 0.5
w 792 0.5
w 793 0.5
w 794 0.5
w 795 0.5
w 796 0.5
w 797 0.5
w 798 0.5
w 799 0.5
w 800 0.5
w 801 0.5
w 802 0.5
w 803 0.5
w 804 0.5
w 805 0.5
w 806 0.5
w 807 0.5
w 808 0.5
w 809 0.5
w 810 0.5
w 811 0.5
w 812 0.5
w 813 0.5
w 814 0.5
w 815 0.5
w 816 0.5
w 817 0.5
w 818 0.5
w 819 0.5
w 820 0.5
w 821 0.5
w 822 0.5
w 823 0.5
w 824 0.5
w 825 0.5
w 826 0.5
w 827 0.5
w 828 0.5
w 829 0.5
w 830 0.5
w 831 0.5
w 832 0.1232033858285621
w 833 0.5
w 834 0.5
w 835 0.5
w 836 0.5
w 837 0.5
w 838 0.5
w 839 0.5
w 840 0.5
w 841 0.5
w 842 0.7053456642315108
w 843 0.5
w 844 0.5
w 845 0.5
w 846 0.5
w 847 0.5
w 848 0.5
w 849 0.5
w 850 0.5
w 851 0.5
w 852 0.5
w 853 0.5
w 854 0.5
w 855 0.5
w 856 0.5
w 857 0.5
w 858 0.5
w 859 0.5
w 860 0.5
w 861 0.6234080780445208
w 862 0.5
w 863 0.5
w 864 0.5
w 865 0.5
w 866 0.5
w 867 0.5
w 868 0.5
w 869 0.5
w 870 0.5
w 871 0.5
w 872 0.5
w 873 0.5
w 874 0.5
w 875 0.5
w 876 0.5
w 877 0.5
w 878 0.5
w 879 0.5
w 880 0.5
w 881 0.5
w 882 0.5
w 883 0.5
w 884 0.864928924104838
w 885 0.5
w 886 0.5
w 887 0.5
w 888 0.5
w 889 0.5
w 890 0.5
w 891 0.5
w 892 0.5
w 893 0.5
w 894 0.5
w 895 0.5
w 896 0.5
w 897 0.5
w 898 0.5
w 899 0.5
w 900 0.5
w 901 0.5
w 902 0.5
w 903 0.5
w 904 0.5
w 905 0.5
w 906 0.5
w 907 0.5
w 908 0.5
w 909 0.5
w 910 0.5
w 911 0.5
w 912 0.5
w 913 0.5
w 914 0.5
w 915 0.5
w 916 0.5
w 917 0.5
w 918 0.5
w 919 0.5
w 920 0.5
w 921 0.5
w 922 0.5
w 923 0.5
w 924 0.5
w 925 0.5
w 926 0.5
w 927 0.5
w 928 0.5
w 929 0.5
w 930 0.5
w 931 0.5
w 932 0.34915397379410534
w 933 0.8734560663021577
w 934 0.5
w 935 0.5
w 936 0.5
w 937 0.8106992859552442
w 938 0.5
w 939 0.5
w 940 0.5
w 941 0.5
w 942 0.5
w 943 0.5
w 944 0.5
w 945 0.5
w 946 0.5
w 947 0.5
w 948 0.5
w 949 0.5
w 950 0.5
w 951 0.5
w 952 0.7147612018335052
w 953 0.5
w 954 0.5
w 955 0.5
w 956 0.5
w 957 0.5
w 958 0.5
w 959 0.5
w 960 0.5
w 961 0.5
w 962 0.5
w 963 0.5
w 964 0.5
w 965 0.5
w 966 0.5
w 967 0.5
w 968 0.5
w 969 0.5
w 970 0.5
w 971 0.5
w 972 0.5
w 973 0.5
w 974 0.5
w 975 0.5
w 976 0.5
w 977 0.7924821819143754
w 978 0.5
w 979 0.5
w 980 0.5
w 981 0.5
w 982 0.5
w 983 0.5
w 984 0.5
w 985 0.5
w 986 0.5
w 987 0.5
w 988 0.5
w 989 0.5
w 990 0.5
w 991 0.5
w 992 0.5
w 993 0.5
w 994 0.5
w 995 0.5
w 996 0.5
w 997 0.5
w 998 0.5
w 999 0.5
w 1000 0.5
w 1001 0.5
w 1002 0.5
w 1003 0.5
w 1004 0.5
w 1005 0.5
w 1006 0.5
w 1007 0.5
w 1008 0.5
w 1009 0.5
w 1010 0.5
w 1011 0.5
w 1012 0.5
w 1013 0.5
w 1014 0.5
w 1015 0.5
w 1016 0.5
w 1017 0.5
w 1018 0.5
w 1019 0.5
w 1020 0.5
w 1021 0.5
w 1022 0.5
w 1023 0.5
w 1024 0.5
w 1025 0.5
w 1026 0.5
w 1027 0.5
w 1028 0.5
w 1029 0.5
w 1030 0.5
w 1031 0.5
w 1032 0.5
w 1033 0.5
w 1034 0.21949212337781893
w 1035 0.5
w 1036 0.5
w 1037 0.5
w 1038 0.5
w 1039 0.5
w 1040 0.5
w 1041 0.5
w 1042 0.5
w 1043 0.5
w 1044 0.5
w 1045 0.5
w 1046 0.5
w 1047 0.5
w 1048 0.5
w 1049 0.5
w 1050 0.5
w 1051 0.5
w 1052 0.5
w 1053 0.5
w 1054 0.5
w 1055 0.5
w 1056 0.5
w 1057 0.5
w 1058 0.5
w 1059 0.5
w 1060 0.5
w 1061 0.5
w 1062 0.5
w 1063 0.5
w 1064 0.5
w 1065 0.5
w 1066 0.5
w 1067 0.5
w 1068 0.5
w 1069 0.5
w 1070 0.5
w 1071 0.5
w 1072 0.5
w 1073 0.5
w 1074 0.5
w 1075 0.5
w 1076 0.5
w 1077 0.5
w 1078 0.5
w 1079 0.5
w 1080 0.1819983259734078
w 1081 0.5
w 1082 0.5
w 1083 0.5
w 1084 0.5
w 1085 0.5
w 1086 0.5
w 1087 0.5
w 1088 0.5
w 1089 0.5
w 1090 0.5
w 1091 0.5
w 1092 0.5
w 1093 0.5
w 1094 0.5
w 1095 0.20643864072552173
w 1096 0.5
w 1097 0.5
w 1098 0.5
w 1099 0.5
w 1100 0.5
w 1101 0.5
w 1102 0.5
w 1103 0.5
w 1104 0.5
w 1105 0.5
w 1106 0.5
w 1107 0.5
w 1108 0.5
w 1109 0.5
w 1110 0.5
w 1111 0.5
w 1112 0.5
w 1113 0.5
w 1114 0.5
w 1115 0.5
w 1116 0.5
w 1117 0.5
w 1118 0.5
w 1119 0.5
w 1120 0.5
w 1121 0.5
w 1122 0.5
w 1123 0.5
w 1124 0.5
w 1125 0.5
w 1126 0.5
w 1127 0.5
w 1128 0.5
w 1129 0.5
w 1130 0.5
w 1131 0.5
w 1132 0.5
w 1133 0.5
w 1134 0.5
w 1135 0.5
w 1136 0.5
w 1137 0.5
w 1138 0.5
w 1139 0.5
w 1140 0.5
w 1141 0.5
w 1142 0.5
w 1143 0.5
w 1144 0.5
w 1145 0.5
w 1146 0.5
w 1147 0.5
w 1148 0.5
w 1149 0.5
w 1150 0.5
w 1151 0.5
w 1152 0.5
w 1153 0.5
w 1154 0.7842868166765031
w 1155 0.5
w 1156 0.5
w 1157 0.5
w 1158 0.5
w 1159 0.5
w 1160 0.5
w 1161 0.5
w 1162 0.5
w 1163 0.5
w 1164 0.5
w 1165 0.5
w 1166 0.5
w 1167 0.5
w 1168 0.5
w 1169 0.5
w 1170 0.5
w 1171 0.5
w 1172 0.5
w 1173 0.5
w 1174 0.5
w 1175 0.5
w 1176 0.5
w 1177 0.3417440532781119
w 1178 0.5
w 1179 0.5
w 1180 0.5
w 1181 0.5
w 1182 0.5
w 1183 0.5
w 1184 0.5
w 1185 0.5
w 1186 0.5
w 1187 0.5
w 1188 0.5
w 1189 0.5
w 1190 0.5
w 1191 0.5
w 1192 0.5
w 1193 0.5
w 1194 0.5
w 1195 0.5
w 1196 0.5
w 1197 0.5
w 1198 0.5
w 1199 0.5
w 1200 0.5
w 1201 0.5
w 1202 0.5
w 1203 0.5
w 1204 0.5
w 1205 0.5
w 1206 0.5
w 1207 0.5
w 1208 0.5
w 1209 0.5
w 1210 0.5
w 1211 0.5
w 1212 0.5
w 1213 0.5
w 1214 0.5
w 1215 0.5
w 1216 0.5
w 1217 0.5
w 1218 0.5
w 1219 0.5
w 1220 0.5
w 1221 0.5
w 1222 0.5
w 1223 0.5
w 1224 0.5
w 1225 0.5
w 1226 0.5
w 1227 0.5
w 1228 0.5
w 1229 0.5
w 1230 0.5
w 1231 0.5
w 1232 0.5
w 1233 0.5
w 1234 0.5
w 1235 0.5
w 1236 0.5
w 1237 0.5
w 1238 0.5
w 1239 0.5
w 1240 0.5
w 1241 0.5
w 1242 0.5
w 1243 0.5
w 1244 0.5
w 1245 0.5
w 1246 0.5
w 1247 0.5
w 1248 0.5
w 1249 0.5
w 1250 0.5
w 1251 0.5
w 1252 0.5
w 1253 0.5
w 1254 0.5
w 1255 0.1498779073774855
w 1256 0.5
w 1257 0.5
w 1258 0.5
w 1259 0.5
w 1260 0.5
w 1261 0.5
w 1262 0.5
w 1263 0.5
w 1264 0.5
w 1265 0.5
w 1266 0.5
w 1267 0.5
w 1268 0.5
w 1269 0.5
w 1270 0.5
w 1271 0.5
w 1272 0.5
w 1273 0.5
w 1274 0.5
w 1275 0.5
w 1276 0.5
w 1277 0.5
w 1278 0.5
w 1279 0.5
w 1280 0.5
w 1281 0.5
w 1282 0.5
w 1283 0.5
w 1284 0.5
w 1285 0.5
w 1286 0.5
w 1287 0.5
w 1288 0.5
w 1289 0.5
w 1290 0.5
w 1291 0.5
w 1292 0.5
w 1293 0.5
w 1294 0.5
w 1295 0.5
w 1296 0.5
w 1297 0.5
w 1298 0.5
w 1299 0.5
w 1300 0.8480811840636766
w 1301 0.5
w 1302 0.5
w 1303 0.5
w 1304 0.5
w 1305 0.5
w 1306 0.5
w 1307 0.5
w 1308 0.5
w 1309 0.5
w 1310 0.5
w 1311 0.5
w 1312 0.5
w 1313 0.5
w 1314 0.5
w 1315 0.5
w 1316 0.5
w 1317 0.5
w 1318 0.5
w 1319 0.5
w 1320 0.5
w 1321 0.5
w 1322 0.5
w 1323 0.5
w 1324 0.5
w 1325 0.5
w 1326 0.5
w 1327 0.5
w 1328 0.5
w 1329 0.5
w 1330 0.5
w 1331 0.5
w 1332 0.5
w 1333 0.5
w 1334 0.5
w 1335 0.5
w 1336 0.5
w 1337 0.5
w 1338 0.5
w 1339 0.5
w 1340 0.5
w 1341 0.5
w 1342 0.5
w 1343 0.5
w 1344 0.5
w 1345 0.5
w 1346 0.5
w 1347 0.5
w 1348 0.5
w 1349 0.5
w 1350 0.5
w 1351 0.5
w 1352 0.5
w 1353 0.5
w 1354 0.5
w 1355 0.5
w 1356 0.5
w 1357 0.5
w 1358 0.5
w 1359 0.5
w 1360 0.5
w 1361 0.5
w 1362 0.5
w 1363 0.5
w 1364 0.5
w 1365 0.5
w 1366 0.5
w 1367 0.5
w 1368 0.5
w 1369 0.5
w 1370 0.5
w 1371 0.5
w 1372 0.5
w 1373 0.5
w 1374 0.5
w 1375 0.5
w 1376 0.5
w 1377 0.5
w 1378 0.1337325795996594
w 1379 0.5
w 1380 0.5
w 1381 0.5
w 1382 0.5
w 1383 0.5
w 1384 0.5
w 1385 0.5
w 1386 0.5
w 1387 0.5
w 1388 0.5
w 1389 0.5
w 1390 0.5
w 1391 0.5
w 1392 0.5
w 1393 0.5
w 1394 0.5
w 1395 0.5
w 1396 0.5
w 1397 0.5
w 1398 0.5
w 1399 0.5
w 1400 0.5
w 1401 0.5
w 1402 0.5
w 1403 0.5
w 1404 0.5
w 1405 0.5
w 1406 0.5
w 1407 0.8752429625942721
w 1408 0.5
w 1409 0.5
w 1410 0.5
w 1411 0.5
w 1412 0.5
w 1413 0.5
w 1414 0.5
w 1415 0.5
w 1416 0.5
w 1417 0.5
w 1418 0.5
w 1419 0.5
w 1420 0.5
w 1421 0.5
w 1422 0.5
w 1423 0.5
w 1424 0.5
w 1425 0.5
w 1426 0.5
w 1427 0.5
w 1428 0.5
w 1429 0.5
w 1430 0.5
w 1431 0.5
w 1432 0.5
w 1433 0.5
w 1434 0.5
w 1435 0.5
w 1436 0.5
w 1437 0.5
w 1438 0.5
w 1439 0.5
w 1440 0.5
w 1441 0.5
w 1442 0.5
w 1443 0.5
w 1444 0.5
w 1445 0.5
w 1446 0.5
w 1447 0.5
w 1448 0.5
w 1449 0.5
w 1450 0.5
w 1451 0.5
w 1452 0.5
w 1453 0.5
w 1454 0.5
w 1455 0.5
w 1456 0.5
w 1457 0.5
w 1458 0.5
w 1459 0.5
w 1460 0.5
w 1461 0.5
w 1462 0.5
w 1463 0.5
w 1464 0.5
w 1465 0.5
w 1466 0.5
w 1467 0.5
w 1468 0.5
w 1469 0.5
w 1470 0.5
w 1471 0.5
w 1472 0.5
w 1473 0.5
w 1474 0.5
w 1475 0.5
w 1476 0.5
w 1477 0.5
w 1478 0.5
w 1479 0.5
w 1480 0.5
w 1481 0.5
w 1482 0.5
w 1483 0.5
w 1484 0.5
w 1485 0.5
w 1486 0.5
w 1487 0.5
w 1488 0.5
w 1489 0.5
w 1490 0.5
w 1491 0.5
w 1492 0.5
w 1493 0.5
w 1494 0.5
w 1495 0.3682305331929581
w 1496 0.5
w 1497 0.5
w 1498 0.5
w 1499 0.5
w 1500 0.5
w 1501 0.5
w 1502 0.5
w 1503 0.5
w 1504 0.5
w 1505 0.5
w 1506 0.5
w 1507 0.5
w 1508 0.5
w 1509 0.5
w 1510 0.5
w 1511 0.5
w 1512 0.5
w 1513 0.5
w 1514 0.5
w 1515 0.5
w 1516 0.5
w 1517 0.5
w 1518 0.5
w 1519 0.5
w 1520 0.7372654911778262
w 1521 0.5
w 1522 0.5
w 1523 0.5
w 1524 0.1746521375361527
w 1525 0.5
w 1526 0.5
w 1527 0.5
w 1528 0.5
w 1529 0.5
w 1530 0.5
w 1531 0.5
w 1532 0.5
w 1533 0.5
w 1534 0.5
w 1535 0.5
w 1536 0.5
w 1537 0.5
w 1538 0.5
w 1539 0.5
w 1540 0.5
w 1541 0.5
w 1542 0.5
w 1543 0.5
w 1544 0.5
w 1545 0.5
w 1546 0.5
w 1547 0.5
w 1548 0.5
w 1549 0.5
w 1550 0.5
w 1551 0.5
w 1552 0.7549558848880807
w 1553 0.5
w 1554 0.5
w 1555 0.5
w 1556 0.5
w 1557 0.5
w 1558 0.5
w 1559 0.5
w 1560 0.5
w 1561 0.5
w 1562 0.5
w 1563 0.5
w 1564 0.5
w 1565 0.5
w 1566 0.5
w 1567 0.5
w 1568 0.5
w 1569 0.5
w 1570 0.5
w 1571 0.5
w 1572 0.5
w 1573 0.5
w 1574 0.5
w 1575 0.5
w 1576 0.5
w 1577 0.5
w 1578 0.5
w 1579 0.5
w 1580 0.5
w 1581 0.5
w 1582 0.5
w 1583 0.5
w 1584 0.5
w 1585 0.5
w 1586 0.5
w 1587 0.5
w 1588 0.5
w 1589 0.5
w 1590 0.5
w 1591 0.5
w 1592 0.5
w 1593 0.5
w 1594 0.5
w 1595 0.5
w 1596 0.5
w 1597 0.5
w 1598 0.5
w 1599 0.5
w 1600 0.5
w 1601 0.5
w 1602 0.5
w 1603 0.5
w 1604 0.5
w 1605 0.5
w 1606 0.5
w 1607 0.5
w 1608 0.5
w 1609 0.5
w 1610 0.5
w 1611 0.5
w 1612 0.5
w 1613 0.5
w 1614 0.5
w 1615 0.5
w 1616 0.5
w 1617 0.5
w 1618 0.7254888916293456
w 1619 0.5
w 1620 0.5
w 1621 0.5
w 1622 0.5
w 1623 0.5
w 1624 0.5
w 1625 0.5
w 1626 0.5
w 1627 0.40569460678509783
w 1628 0.5
w 1629 0.5
w 1630 0.5
w 1631 0.5
w 1632 0.5
w 1633 0.5
w 1634 0.5
w 1635 0.5
w 1636 0.5
w 1637 0.5
w 1638 0.5
w 1639 0.5
w 1640 0.5
w 1641 0.5
w 1642 0.5
w 1643 0.5
w 1644 0.5
w 1645 0.5
w 1646 0.5
w 1647 0.5
w 1648 0.5
w 1649 0.5
w 1650 0.5
w 1651 0.5
w 1652 0.5
w 1653 0.5
w 1654 0.5
w 1655 0.5
w 1656 0.5
w 1657 0.5
w 1658 0.5
w 1659 0.5
w 1660 0.21777914792968497
w 1661 0.5
w 1662 0.5
w 1663 0.5
w 1664 0.5
w 1665 0.5
w 1666 0.5
w 1667 0.5
w 1668 0.5
w 1669 0.5
w 1670 0.5
w 1671 0.5
w 1672 0.5
w 1673 0.5
w 1674 0.5
w 1675 0.5
w 1676 0.5
w 1677 0.5
w 1678 0.5
w 1679 0.806841649490648
w 1680 0.5
w 1681 0.5
w 1682 0.5
w 1683 0.5
w 1684 0.5
w 1685 0.5
w 1686 0.5
w 1687 0.5
w 1688 0.5
w 1689 0.5
w 1690 0.5
w 1691 0.5
w 1692 0.5
w 1693 0.5
w 1694 0.5
w 1695 0.5
w 1696 0.5
w 1697 0.5
w 1698 0.5
w 1699 0.5
w 1700 0.5
w 1701 0.38298016613243796
w 1702 0.5
w 1703 0.5
w 1704 0.5
w 1705 0.5
w 1706 0.5
w 1707 0.5
w 1708 0.5
w 1709 0.5
w 1710 0.5
w 1711 0.5
w 1712 0.5
w 1713 0.5
w 1714 0.5
w 1715 0.5
w 1716 0.5
w 1717 0.5
w 1718 0.5
w 1719 0.5
w 1720 0.5
w 1721 0.5
w 1722 0.5
w 1723 0.5
w 1724 0.5
w 1725 0.5
w 1726 0.5
w 1727 0.5
w 1728 0.5
w 1729 0.4761849968145527
w 1730 0.5
w 1731 0.5
w 1732 0.5
w 1733 0.5
w 1734 0.5
w 1735 0.5
w 1736 0.5
w 1737 0.5
w 1738 0.5
w 1739 0.5
w 1740 0.5
w 1741 0.5
w 1742 0.5
w 1743 0.5
w 1744 0.5
w 1745 0.5
w 1746 0.5
w 1747 0.5
w 1748 0.5
w 1749 0.43427377597718825
w 1750 0.5
w 1751 0.5
w 1752 0.5
w 1753 0.5
w 1754 0.5
w 1755 0.5
w 1756 0.5
w 1757 0.5
w 1758 0.5
w 1759 0.5
w 1760 0.5
w 1761 0.5
w 1762 0.5
w 1763 0.22725257574254584
w 1764 0.5
w 1765 0.5
w 1766 0.5
w 1767 0.5
w 1768 0.5
w 1769 0.5
w 1770 0.5
w 1771 0.12692397890458446
w 1772 0.5
w 1773 0.5
w 1774 0.5
w 1775 0.5
w 1776 0.5
-657 -693 -652 0
-657 -693 -807 0
-657 -693 -1636 0
-657 -693 -1189 0
-657 -693 1272 -807 0
-657 -693 -1272 807 0
-657 -693 306 -1189 0
-657 -693 -306 1189 0
-657 -693 1726 -652 0
-657 -693 -1726 652 0
-657 -693 839 -1636 0
-657 -693 -839 1636 0
-657 693 1716 0
-657 693 959 0
-657 693 1708 0
-657 693 973 0
-657 693 1272 -959 0
-657 693 -1272 959 0
-657 693 306 -973 0
-657 693 -306 973 0
-657 693 1726 -1716 0
-657 693 -1726 1716 0
-657 693 839 -1708 0
-657 693 -839 1708 0
-657 1604 0
-657 178 -1272 0
-657 -178 1272 0
-657 624 -306 0
-657 -624 306 0
-657 44 -1726 0
-657 -44 1726 0
-657 362 -839 0
-657 -362 839 0
657 -1122 -1736 0
657 -1122 -1329 0
657 -1122 554 0
657 -1122 1488 0
657 -1122 898 -1329 0
657 -1122 -898 1329 0
657 -1122 787 -1488 0
657 -1122 -787 1488 0
657 -1122 518 -1736 0
657 -1122 -518 1736 0
657 -1122 662 -554 0
657 -1122 -662 554 0
657 1122 321 0
657 1122 1239 0
657 1122 -284 0
657 1122 -1386 0
657 1122 898 -1239 0
657 1122 -898 1239 0
657 1122 787 -1386 0
657 1122 -787 1386 0
657 1122 518 -321 0
657 1122 -518 321 0
657 1122 662 -284 0
657 1122 -662 284 0
657 335 0
657 178 -898 0
657 -178 898 0
657 624 -787 0
657 -624 787 0
657 44 -518 0
657 -44 518 0
657 362 -662 0
657 -362 662 0
-1679 -369 -62 0
-1679 -369 -282 0
-1679 -369 -475 0
-1679 -369 -1651 0
-1679 -369 381 -282 0
-1679 -369 -381 282 0
-1679 -369 882 -1651 0
-1679 -369 -882 1651 0
-1679 -369 270 -62 0
-1679 -369 -270 62 0
-1679 -369 368 -475 0
-1679 -369 -368 475 0
-1679 369 1400 0
-1679 369 767 0
-1679 369 930 0
-1679 369 1131 0
-1679 369 381 -767 0
-1679 369 -381 767 0
-1679 369 882 -1131 0
-1679 369 -882 1131 0
-1679 369 270 -1400 0
-1679 369 -270 1400 0
-1679 369 368 -930 0
-1679 369 -368 930 0
-1679 1187 0
-1679 994 -381 0
-1679 -994 381 0
-1679 165 -882 0
-1679 -165 882 0
-1679 178 -270 0
-1679 -178 270 0
-1679 583 -368 0
-1679 -583 368 0
1679 -971 -1050 0
1679 -971 -1567 0
1679 -971 1569 0
1679 -971 1616 0
1679 -971 258 -1567 0
1679 -971 -258 1567 0
1679 -971 1001 -1616 0
1679 -971 -1001 1616 0
1679 -971 715 -1050 0
1679 -971 -715 1050 0
1679 -971 376 -1569 0
1679 -971 -376 1569 0
1679 971 1232 0
1679 971 157 0
1679 971 -484 0
1679 971 -1776 0
1679 971 258 -157 0
1679 971 -258 157 0
1679 971 1001 -1776 0
1679 971 -1001 1776 0
1679 971 715 -1232 0
1679 971 -715 1232 0
1679 971 376 -484 0
1679 971 -376 484 0
1679 501 0
1679 994 -258 0
1679 -994 258 0
1679 165 -1001 0
1679 -165 1001 0
1679 178 -715 0
1679 -178 715 0
1679 583 -376 0
1679 -583 376 0
-952 -1545 -453 0
-952 -1545 -1354 0
-952 -1545 -1438 0
-952 -1545 -1110 0
-952 -1545 936 -1354 0
-952 -1545 -936 1354 0
-952 -1545 404 -1110 0
-952 -1545 -404 1110 0
-952 -1545 1597 -453 0
-952 -1545 -1597 453 0
-952 -1545 1244 -1438 0
-952 -1545 -1244 1438 0
-952 1545 601 0
-952 1545 38 0
-952 1545 116 0
-952 1545 825 0
-952 1545 936 -38 0
-952 1545 -936 38 0
-952 1545 404 -825 0
-952 1545 -404 825 0
-952 1545 1597 -601 0
-952 1545 -1597 601 0
-952 1545 1244 -116 0
-952 1545 -1244 116 0
-952 110 0
-952 229 -936 0
-952 -229 936 0
-952 557 -404 0
-952 -557 404 0
-952 994 -1597 0
-952 -994 1597 0
-952 322 -1244 0
-952 -322 1244 0
952 -979 -1696 0
952 -979 -742 0
952 -979 123 0
952 -979 771 0
952 -979 1669 -742 0
952 -979 -1669 742 0
952 -979 1242 -771 0
952 -979 -1242 771 0
952 -979 235 -1696 0
952 -979 -235 1696 0
952 -979 480 -123 0
952 -979 -480 123 0
952 979 1607 0
952 979 1657 0
952 979 -445 0
952 979 -174 0
952 979 1669 -1657 0
952 979 -1669 1657 0
952 979 1242 -174 0
952 979 -1242 174 0
952 979 235 -1607 0
952 979 -235 1607 0
952 979 480 -445 0
952 979 -480 445 0
952 1305 0
952 229 -1669 0
952 -229 1669 0
952 557 -1242 0
952 -557 1242 0
952 994 -235 0
952 -994 235 0
952 322 -480 0
952 -322 480 0
-1080 -1038 -1536 0
-1080 -1038 -661 0
-1080 -1038 -685 0
-1080 -1038 -922 0
-1080 -1038 1684 -661 0
-1080 -1038 -1684 661 0
-1080 -1038 963 -922 0
-1080 -1038 -963 922 0
-1080 -1038 118 -1536 0
-1080 -1038 -118 1536 0
-1080 -1038 706 -685 0
-1080 -1038 -706 685 0
-1080 1038 721 0
-1080 1038 1617 0
-1080 1038 868 0
-1080 1038 1638 0
-1080 1038 1684 -1617 0
-1080 1038 -1684 1617 0
-1080 1038 963 -1638 0
-1080 1038 -963 1638 0
-1080 1038 118 -721 0
-1080 1038 -118 721 0
-1080 1038 706 -868 0
-1080 1038 -706 868 0
-1080 1721 0
-1080 173 -1684 0
-1080 -173 1684 0
-1080 510 -963 0
-1080 -510 963 0
-1080 229 -118 0
-1080 -229 118 0
-1080 349 -706 0
-1080 -349 706 0
1080 -1543 -367 0
1080 -1543 -1185 0
1080 -1543 822 0
1080 -1543 894 0
1080 -1543 1672 -1185 0
1080 -1543 -1672 1185 0
1080 -1543 823 -894 0
1080 -1543 -823 894 0
1080 -1543 1127 -367 0
1080 -1543 -1127 367 0
1080 -1543 452 -822 0
1080 -1543 -452 822 0
1080 1543 1247 0
1080 1543 1348 0
1080 1543 -777 0
1080 1543 -1738 0
1080 1543 1672 -1348 0
1080 1543 -1672 1348 0
1080 1543 823 -1738 0
1080 1543 -823 1738 0
1080 1543 1127 -1247 0
1080 1543 -1127 1247 0
1080 1543 452 -777 0
1080 1543 -452 777 0
1080 566 0
1080 173 -1672 0
1080 -173 1672 0
1080 510 -823 0
1080 -510 823 0
1080 229 -1127 0
1080 -229 1127 0
1080 349 -452 0
1080 -349 452 0
-1177 -1178 -1755 0
-1177 -1178 -1486 0
-1177 -1178 -1581 0
-1177 -1178 -1196 0
-1177 -1178 549 -1486 0
-1177 -1178 -549 1486 0
-1177 -1178 8 -1196 0
-1177 -1178 -8 1196 0
-1177 -1178 1461 -1755 0
-1177 -1178 -1461 1755 0
-1177 -1178 137 -1581 0
-1177 -1178 -137 1581 0
-1177 1178 888 0
-1177 1178 895 0
-1177 1178 1079 0
-1177 1178 703 0
-1177 1178 549 -895 0
-1177 1178 -549 895 0
-1177 1178 8 -703 0
-1177 1178 -8 703 0
-1177 1178 1461 -888 0
-1177 1178 -1461 888 0
-1177 1178 137 -1079 0
-1177 1178 -137 1079 0
-1177 1542 0
-1177 1171 -549 0
-1177 -1171 549 0
-1177 1129 -8 0
-1177 -1129 8 0
-1177 1742 -1461 0
-1177 -1742 1461 0
-1177 991 -137 0
-1177 -991 137 0
1177 -892 -1734 0
1177 -892 -635 0
1177 -892 136 0
1177 -892 1280 0
1177 -892 87 -635 0
1177 -892 -87 635 0
1177 -892 803 -1280 0
1177 -892 -803 1280 0
1177 -892 164 -1734 0
1177 -892 -164 1734 0
1177 -892 1151 -136 0
1177 -892 -1151 136 0
1177 892 408 0
1177 892 1384 0
1177 892 -544 0
1177 892 -253 0
1177 892 87 -1384 0
1177 892 -87 1384 0
1177 892 803 -253 0
1177 892 -803 253 0
1177 892 164 -408 0
1177 892 -164 408 0
1177 892 1151 -544 0
1177 892 -1151 544 0
1177 1663 0
1177 1171 -87 0
1177 -1171 87 0
1177 1129 -803 0
1177 -1129 803 0
1177 1742 -164 0
1177 -1742 164 0
1177 991 -1151 0
1177 -991 1151 0
-1627 -778 -1492 0
-1627 -778 -1527 0
-1627 -778 -28 0
-1627 -778 -1427 0
-1627 -778 736 -1527 0
-1627 -778 -736 1527 0
-1627 -778 55 -1427 0
-1627 -778 -55 1427 0
-1627 -778 327 -1492 0
-1627 -778 -327 1492 0
-1627 -778 1751 -28 0
-1627 -778 -1751 28 0
-1627 778 790 0
-1627 778 867 0
-1627 778 142 0
-1627 778 223 0
-1627 778 736 -867 0
-1627 778 -736 867 0
-1627 778 55 -223 0
-1627 778 -55 223 0
-1627 778 327 -790 0
-1627 778 -327 790 0
-1627 778 1751 -142 0
-1627 778 -1751 142 0
-1627 1477 0
-1627 859 -736 0
-1627 -859 736 0
-1627 641 -55 0
-1627 -641 55 0
-1627 1171 -327 0
-1627 -1171 327 0
-1627 1582 -1751 0
-1627 -1582 1751 0
1627 -1590 -320 0
1627 -1590 -814 0
1627 -1590 1169 0
1627 -1590 670 0
1627 -1590 1511 -814 0
1627 -1590 -1511 814 0
1627 -1590 1286 -670 0
1627 -1590 -1286 670 0
1627 -1590 920 -320 0
1627 -1590 -920 320 0
1627 -1590 158 -1169 0
1627 -1590 -158 1169 0
1627 1590 1568 0
1627 1590 1630 0
1627 1590 -40 0
1627 1590 -167 0
1627 1590 1511 -1630 0
1627 1590 -1511 1630 0
1627 1590 1286 -167 0
1627 1590 -1286 167 0
1627 1590 920 -1568 0
1627 1590 -920 1568 0
1627 1590 158 -40 0
1627 1590 -158 40 0
1627 193 0
1627 859 -1511 0
1627 -859 1511 0
1627 641 -1286 0
1627 -641 1286 0
1627 1171 -920 0
1627 -1171 920 0
1627 1582 -158 0
1627 -1582 158 0
-937 -124 -240 0
-937 -124 -1571 0
-937 -124 -632 0
-937 -124 -1565 0
-937 -124 1377 -1571 0
-937 -124 -1377 1571 0
-937 -124 1411 -1565 0
-937 -124 -1411 1565 0
-937 -124 259 -240 0
-937 -124 -259 240 0
-937 -124 1175 -632 0
-937 -124 -1175 632 0
-937 124 1745 0
-937 124 95 0
-937 124 304 0
-937 124 948 0
-937 124 1377 -95 0
-937 124 -1377 95 0
-937 124 1411 -948 0
-937 124 -1411 948 0
-937 124 259 -1745 0
-937 124 -259 1745 0
-937 124 1175 -304 0
-937 124 -1175 304 0
-937 1395 0
-937 818 -1377 0
-937 -818 1377 0
-937 195 -1411 0
-937 -195 1411 0
-937 624 -259 0
-937 -624 259 0
-937 1697 -1175 0
-937 -1697 1175 0
937 -1035 -1426 0
937 -1035 -532 0
937 -1035 1765 0
937 -1035 1452 0
937 -1035 57 -532 0
937 -1035 -57 532 0
937 -1035 1009 -1452 0
937 -1035 -1009 1452 0
937 -1035 1176 -1426 0
937 -1035 -1176 1426 0
937 -1035 1529 -1765 0
937 -1035 -1529 1765 0
937 1035 194 0
937 1035 310 0
937 1035 -1356 0
937 1035 -1757 0
937 1035 57 -310 0
937 1035 -57 310 0
937 1035 1009 -1757 0
937 1035 -1009 1757 0
937 1035 1176 -194 0
937 1035 -1176 194 0
937 1035 1529 -1356 0
937 1035 -1529 1356 0
937 1287 0
937 818 -57 0
937 -818 57 0
937 195 -1009 0
937 -195 1009 0
937 624 -1176 0
937 -624 1176 0
937 1697 -1529 0
937 -1697 1529 0
-579 -980 -1501 0
-579 -980 -274 0
-579 -980 -96 0
-579 -980 -421 0
-579 -980 171 -274 0
-579 -980 -171 274 0
-579 -980 860 -421 0
-579 -980 -860 421 0
-579 -980 1719 -1501 0
-579 -980 -1719 1501 0
-579 -980 1204 -96 0
-579 -980 -1204 96 0
-579 980 700 0
-579 980 1528 0
-579 980 22 0
-579 980 1324 0
-579 980 171 -1528 0
-579 980 -171 1528 0
-579 980 860 -1324 0
-579 980 -860 1324 0
-579 980 1719 -700 0
-579 980 -1719 700 0
-579 980 1204 -22 0
-579 980 -1204 22 0
-579 666 0
-579 399 -171 0
-579 -399 171 0
-579 1559 -860 0
-579 -1559 860 0
-579 818 -1719 0
-579 -818 1719 0
-579 621 -1204 0
-579 -621 1204 0
579 -1739 -1066 0
579 -1739 -1102 0
579 -1739 1219 0
579 -1739 1289 0
579 -1739 27 -1102 0
579 -1739 -27 1102 0
579 -1739 1033 -1289 0
579 -1739 -1033 1289 0
579 -1739 1610 -1066 0
579 -1739 -1610 1066 0
579 -1739 43 -1219 0
579 -1739 -43 1219 0
579 1739 960 0
579 1739 1350 0
579 1739 -429 0
579 1739 -1740 0
579 1739 27 -1350 0
579 1739 -27 1350 0
579 1739 1033 -1740 0
579 1739 -1033 1740 0
579 1739 1610 -960 0
579 1739 -1610 960 0
579 1739 43 -429 0
579 1739 -43 429 0
579 691 0
579 399 -27 0
579 -399 27 0
579 1559 -1033 0
579 -1559 1033 0
579 818 -1610 0
579 -818 1610 0
579 621 -43 0
579 -621 43 0
-76 -1218 -1339 0
-76 -1218 -1308 0
-76 -1218 -602 0
-76 -1218 -815 0
-76 -1218 563 -1308 0
-76 -1218 -563 1308 0
-76 -1218 683 -815 0
-76 -1218 -683 815 0
-76 -1218 121 -1339 0
-76 -1218 -121 1339 0
-76 -1218 1012 -602 0
-76 -1218 -1012 602 0
-76 1218 794 0
-76 1218 1709 0
-76 1218 417 0
-76 1218 521 0
-76 1218 563 -1709 0
-76 1218 -563 1709 0
-76 1218 683 -521 0
-76 1218 -683 521 0
-76 1218 121 -794 0
-76 1218 -121 794 0
-76 1218 1012 -417 0
-76 1218 -1012 417 0
-76 525 0
-76 294 -563 0
-76 -294 563 0
-76 1644 -683 0
-76 -1644 683 0
-76 399 -121 0
-76 -399 121 0
-76 149 -1012 0
-76 -149 1012 0
76 -530 -1646 0
76 -530 -1241 0
76 -530 198 0
76 -530 1769 0
76 -530 1706 -1241 0
76 -530 -1706 1241 0
76 -530 1040 -1769 0
76 -530 -1040 1769 0
76 -530 426 -1646 0
76 -530 -426 1646 0
76 -530 941 -198 0
76 -530 -941 198 0
76 530 99 0
76 530 1193 0
76 530 -753 0
76 530 -890 0
76 530 1706 -1193 0
76 530 -1706 1193 0
76 530 1040 -890 0
76 530 -1040 890 0
76 530 426 -99 0
76 530 -426 99 0
76 530 941 -753 0
76 530 -941 753 0
76 265 0
76 294 -1706 0
76 -294 1706 0
76 1644 -1040 0
76 -1644 1040 0
76 399 -426 0
76 -399 426 0
76 149 -941 0
76 -149 941 0
-1520 -1355 -640 0
-1520 -1355 -185 0
-1520 -1355 -1549 0
-1520 -1355 -145 0
-1520 -1355 827 -185 0
-1520 -1355 -827 185 0
-1520 -1355 1301 -145 0
-1520 -1355 -1301 145 0
-1520 -1355 1257 -640 0
-1520 -1355 -1257 640 0
-1520 -1355 243 -1549 0
-1520 -1355 -243 1549 0
-1520 1355 391 0
-1520 1355 1323 0
-1520 1355 24 0
-1520 1355 19 0
-1520 1355 827 -1323 0
-1520 1355 -827 1323 0
-1520 1355 1301 -19 0
-1520 1355 -1301 19 0
-1520 1355 1257 -391 0
-1520 1355 -1257 391 0
-1520 1355 243 -24 0
-1520 1355 -243 24 0
-1520 1235 0
-1520 626 -827 0
-1520 -626 827 0
-1520 1456 -1301 0
-1520 -1456 1301 0
-1520 294 -1257 0
-1520 -294 1257 0
-1520 656 -243 0
-1520 -656 243 0
1520 -746 -1688 0
1520 -746 -279 0
1520 -746 1686 0
1520 -746 620 0
1520 -746 1673 -279 0
1520 -746 -1673 279 0
1520 -746 395 -620 0
1520 -746 -395 620 0
1520 -746 63 -1688 0
1520 -746 -63 1688 0
1520 -746 1652 -1686 0
1520 -746 -1652 1686 0
1520 746 1041 0
1520 746 283 0
1520 746 -908 0
1520 746 -329 0
1520 746 1673 -283 0
1520 746 -1673 283 0
1520 746 395 -329 0
1520 746 -395 329 0
1520 746 63 -1041 0
1520 746 -63 1041 0
1520 746 1652 -908 0
1520 746 -1652 908 0
1520 1419 0
1520 626 -1673 0
1520 -626 1673 0
1520 1456 -395 0
1520 -1456 395 0
1520 294 -63 0
1520 -294 63 0
1520 656 -1652 0
1520 -656 1652 0
-473 -1202 -1261 0
-473 -1202 -237 0
-473 -1202 -191 0
-473 -1202 -1614 0
-473 -1202 1027 -237 0
-473 -1202 -1027 237 0
-473 -1202 625 -1614 0
-473 -1202 -625 1614 0
-473 -1202 755 -1261 0
-473 -1202 -755 1261 0
-473 -1202 1482 -191 0
-473 -1202 -1482 191 0
-473 1202 798 0
-473 1202 58 0
-473 1202 1682 0
-473 1202 1643 0
-473 1202 1027 -58 0
-473 1202 -1027 58 0
-473 1202 625 -1643 0
-473 1202 -625 1643 0
-473 1202 755 -798 0
-473 1202 -755 798 0
-473 1202 1482 -1682 0
-473 1202 -1482 1682 0
-473 709 0
-473 1366 -1027 0
-473 -1366 1027 0
-473 1683 -625 0
-473 -1683 625 0
-473 626 -755 0
-473 -626 755 0
-473 556 -1482 0
-473 -556 1482 0
473 -947 -1368 0
473 -947 -938 0
473 -947 775 0
473 -947 407 0
473 -947 966 -938 0
473 -947 -966 938 0
473 -947 785 -407 0
473 -947 -785 407 0
473 -947 1112 -1368 0
473 -947 -1112 1368 0
473 -947 170 -775 0
473 -947 -170 775 0
473 947 1024 0
473 947 720 0
473 947 -250 0
473 947 -1108 0
473 947 966 -720 0
473 947 -966 720 0
473 947 785 -1108 0
473 947 -785 1108 0
473 947 1112 -1024 0
473 947 -1112 1024 0
473 947 170 -250 0
473 947 -170 250 0
473 595 0
473 1366 -966 0
473 -1366 966 0
473 1683 -785 0
473 -1683 785 0
473 626 -1112 0
473 -626 1112 0
473 556 -170 0
473 -556 170 0
-932 -1345 -1410 0
-932 -1345 -669 0
-932 -1345 -493 0
-932 -1345 -1412 0
-932 -1345 1105 -669 0
-932 -1345 -1105 669 0
-932 -1345 1166 -1412 0
-932 -1345 -1166 1412 0
-932 -1345 668 -1410 0
-932 -1345 -668 1410 0
-932 -1345 1007 -493 0
-932 -1345 -1007 493 0
-932 1345 955 0
-932 1345 935 0
-932 1345 1489 0
-932 1345 665 0
-932 1345 1105 -935 0
-932 1345 -1105 935 0
-932 1345 1166 -665 0
-932 1345 -1166 665 0
-932 1345 668 -955 0
-932 1345 -668 955 0
-932 1345 1007 -1489 0
-932 1345 -1007 1489 0
-932 332 0
-932 458 -1105 0
-932 -458 1105 0
-932 646 -1166 0
-932 -646 1166 0
-932 1366 -668 0
-932 -1366 668 0
-932 1459 -1007 0
-932 -1459 1007 0
932 -393 -1737 0
932 -393 -1370 0
932 -393 204 0
932 -393 1208 0
932 -393 886 -1370 0
932 -393 -886 1370 0
932 -393 1113 -1208 0
932 -393 -1113 1208 0
932 -393 1690 -1737 0
932 -393 -1690 1737 0
932 -393 186 -204 0
932 -393 -186 204 0
932 393 109 0
932 393 846 0
932 393 -1458 0
932 393 -885 0
932 393 886 -846 0
932 393 -886 846 0
932 393 1113 -885 0
932 393 -1113 885 0
932 393 1690 -109 0
932 393 -1690 109 0
932 393 186 -1458 0
932 393 -186 1458 0
932 1645 0
932 458 -886 0
932 -458 886 0
932 646 -1113 0
932 -646 1113 0
932 1366 -1690 0
932 -1366 1690 0
932 1459 -186 0
932 -1459 186 0
-1154 -1561 -1274 0
-1154 -1561 -1530 0
-1154 -1561 -851 0
-1154 -1561 -1342 0
-1154 -1561 1194 -1530 0
-1154 -1561 -1194 1530 0
-1154 -1561 953 -1342 0
-1154 -1561 -953 1342 0
-1154 -1561 780 -1274 0
-1154 -1561 -780 1274 0
-1154 -1561 1292 -851 0
-1154 -1561 -1292 851 0
-1154 1561 572 0
-1154 1561 671 0
-1154 1561 54 0
-1154 1561 1656 0
-1154 1561 1194 -671 0
-1154 1561 -1194 671 0
-1154 1561 953 -1656 0
-1154 1561 -953 1656 0
-1154 1561 780 -572 0
-1154 1561 -780 572 0
-1154 1561 1292 -54 0
-1154 1561 -1292 54 0
-1154 416 0
-1154 1275 -1194 0
-1154 -1275 1194 0
-1154 1558 -953 0
-1154 -1558 953 0
-1154 1114 -780 0
-1154 -1114 780 0
-1154 641 -1292 0
-1154 -641 1292 0
1154 -837 -379 0
1154 -837 -432 0
1154 -837 929 0
1154 -837 26 0
1154 -837 967 -432 0
1154 -837 -967 432 0
1154 -837 869 -26 0
1154 -837 -869 26 0
1154 -837 397 -379 0
1154 -837 -397 379 0
1154 -837 285 -929 0
1154 -837 -285 929 0
1154 837 1560 0
1154 837 639 0
1154 837 -1028 0
1154 837 -881 0
1154 837 967 -639 0
1154 837 -967 639 0
1154 837 869 -881 0
1154 837 -869 881 0
1154 837 397 -1560 0
1154 837 -397 1560 0
1154 837 285 -1028 0
1154 837 -285 1028 0
1154 594 0
1154 1275 -967 0
1154 -1275 967 0
1154 1558 -869 0
1154 -1558 869 0
1154 1114 -397 0
1154 -1114 397 0
1154 641 -285 0
1154 -641 285 0
-1495 -296 -643 0
-1495 -296 -1443 0
-1495 -296 -467 0
-1495 -296 -1612 0
-1495 -296 241 -1443 0
-1495 -296 -241 1443 0
-1495 -296 560 -1612 0
-1495 -296 -560 1612 0
-1495 -296 1666 -643 0
-1495 -296 -1666 643 0
-1495 -296 437 -467 0
-1495 -296 -437 467 0
-1495 296 454 0
-1495 296 934 0
-1495 296 364 0
-1495 296 1327 0
-1495 296 241 -934 0
-1495 296 -241 934 0
-1495 296 560 -1327 0
-1495 296 -560 1327 0
-1495 296 1666 -454 0
-1495 296 -1666 454 0
-1495 296 437 -364 0
-1495 296 -437 364 0
-1495 415 0
-1495 221 -241 0
-1495 -221 241 0
-1495 516 -560 0
-1495 -516 560 0
-1495 1275 -1666 0
-1495 -1275 1666 0
-1495 510 -437 0
-1495 -510 437 0
1495 -1373 -1259 0
1495 -1373 -1217 0
1495 -1373 658 0
1495 -1373 1396 0
1495 -1373 238 -1217 0
1495 -1373 -238 1217 0
1495 -1373 1390 -1396 0
1495 -1373 -1390 1396 0
1495 -1373 627 -1259 0
1495 -1373 -627 1259 0
1495 -1373 1759 -658 0
1495 -1373 -1759 658 0
1495 1373 1044 0
1495 1373 913 0
1495 1373 -1537 0
1495 1373 -336 0
1495 1373 238 -913 0
1495 1373 -238 913 0
1495 1373 1390 -336 0
1495 1373 -1390 336 0
1495 1373 627 -1044 0
1495 1373 -627 1044 0
1495 1373 1759 -1537 0
1495 1373 -1759 1537 0
1495 202 0
1495 221 -238 0
1495 -221 238 0
1495 516 -1390 0
1495 -516 1390 0
1495 1275 -627 0
1495 -1275 627 0
1495 510 -1759 0
1495 -510 1759 0
-1701 -1667 -858 0
-1701 -1667 -970 0
-1701 -1667 -1211 0
-1701 -1667 -812 0
-1701 -1667 396 -970 0
-1701 -1667 -396 970 0
-1701 -1667 1445 -812 0
-1701 -1667 -1445 812 0
-1701 -1667 169 -858 0
-1701 -1667 -169 858 0
-1701 -1667 799 -1211 0
-1701 -1667 -799 1211 0
-1701 1667 448 0
-1701 1667 623 0
-1701 1667 1510 0
-1701 1667 714 0
-1701 1667 396 -623 0
-1701 1667 -396 623 0
-1701 1667 1445 -714 0
-1701 1667 -1445 714 0
-1701 1667 169 -448 0
-1701 1667 -169 448 0
-1701 1667 799 -1510 0
-1701 1667 -799 1510 0
-1701 1008 0
-1701 505 -396 0
-1701 -505 396 0
-1701 1758 -1445 0
-1701 -1758 1445 0
-1701 221 -169 0
-1701 -221 169 0
-1701 809 -799 0
-1701 -809 799 0
1701 -495 -512 0
1701 -495 -181 0
1701 -495 233 0
1701 -495 990 0
1701 -495 384 -181 0
1701 -495 -384 181 0
1701 -495 451 -990 0
1701 -495 -451 990 0
1701 -495 535 -512 0
1701 -495 -535 512 0
1701 -495 434 -233 0
1701 -495 -434 233 0
1701 495 682 0
1701 495 1025 0
1701 495 -774 0
1701 495 -1523 0
1701 495 384 -1025 0
1701 495 -384 1025 0
1701 495 451 -1523 0
1701 495 -451 1523 0
1701 495 535 -682 0
1701 495 -535 682 0
1701 495 434 -774 0
1701 495 -434 774 0
1701 1601 0
1701 505 -384 0
1701 -505 384 0
1701 1758 -451 0
1701 -1758 451 0
1701 221 -535 0
1701 -221 535 0
1701 809 -434 0
1701 -809 434 0
-576 -1269 -1046 0
-576 -1269 -1031 0
-576 -1269 -1465 0
-576 -1269 -378 0
-576 -1269 730 -1031 0
-576 -1269 -730 1031 0
-576 -1269 11 -378 0
-576 -1269 -11 378 0
-576 -1269 719 -1046 0
-576 -1269 -719 1046 0
-576 -1269 481 -1465 0
-576 -1269 -481 1465 0
-576 1269 459 0
-576 1269 1173 0
-576 1269 126 0
-576 1269 834 0
-576 1269 730 -1173 0
-576 1269 -730 1173 0
-576 1269 11 -834 0
-576 1269 -11 834 0
-576 1269 719 -459 0
-576 1269 -719 459 0
-576 1269 481 -126 0
-576 1269 -481 126 0
-576 673 0
-576 925 -730 0
-576 -925 730 0
-576 1060 -11 0
-576 -1060 11 0
-576 1704 -719 0
-576 -1704 719 0
-576 1559 -481 0
-576 -1559 481 0
576 -782 -1750 0
576 -782 -543 0
576 -782 988 0
576 -782 880 0
576 -782 460 -543 0
576 -782 -460 543 0
576 -782 1093 -880 0
576 -782 -1093 880 0
576 -782 144 -1750 0
576 -782 -144 1750 0
576 -782 498 -988 0
576 -782 -498 988 0
576 782 1594 0
576 782 520 0
576 782 -1262 0
576 782 -1620 0
576 782 460 -520 0
576 782 -460 520 0
576 782 1093 -1620 0
576 782 -1093 1620 0
576 782 144 -1594 0
576 782 -144 1594 0
576 782 498 -1262 0
576 782 -498 1262 0
576 678 0
576 925 -460 0
576 -925 460 0
576 1060 -1093 0
576 -1060 1093 0
576 1704 -144 0
576 -1704 144 0
576 1559 -498 0
576 -1559 498 0
-79 -974 -1428 0
-79 -974 -766 0
-79 -974 -1091 0
-79 -974 -619 0
-79 -974 781 -766 0
-79 -974 -781 766 0
-79 -974 338 -619 0
-79 -974 -338 619 0
-79 -974 18 -1428 0
-79 -974 -18 1428 0
-79 -974 1519 -1091 0
-79 -974 -1519 1091 0
-79 974 1078 0
-79 974 1475 0
-79 974 1140 0
-79 974 82 0
-79 974 781 -1475 0
-79 974 -781 1475 0
-79 974 338 -82 0
-79 974 -338 82 0
-79 974 18 -1078 0
-79 974 -18 1078 0
-79 974 1519 -1140 0
-79 974 -1519 1140 0
-79 1075 0
-79 500 -781 0
-79 -500 781 0
-79 1359 -338 0
-79 -1359 338 0
-79 925 -18 0
-79 -925 18 0
-79 581 -1519 0
-79 -581 1519 0
79 -1160 -1005 0
79 -1160 -517 0
79 -1160 385 0
79 -1160 726 0
79 -1160 762 -517 0
79 -1160 -762 517 0
79 -1160 527 -726 0
79 -1160 -527 726 0
79 -1160 1509 -1005 0
79 -1160 -1509 1005 0
79 -1160 1476 -385 0
79 -1160 -1476 385 0
79 1160 1180 0
79 1160 871 0
79 1160 -1337 0
79 1160 -159 0
79 1160 762 -871 0
79 1160 -762 871 0
79 1160 527 -159 0
79 1160 -527 159 0
79 1160 1509 -1180 0
79 1160 -1509 1180 0
79 1160 1476 -1337 0
79 1160 -1476 1337 0
79 1693 0
79 500 -762 0
79 -500 762 0
79 1359 -527 0
79 -1359 527 0
79 925 -1509 0
79 -925 1509 0
79 581 -1476 0
79 -581 1476 0
-37 -1121 -1695 0
-37 -1121 -1293 0
-37 -1121 -1423 0
-37 -1121 -561 0
-37 -1121 1315 -1293 0
-37 -1121 -1315 1293 0
-37 -1121 366 -561 0
-37 -1121 -366 561 0
-37 -1121 914 -1695 0
-37 -1121 -914 1695 0
-37 -1121 1106 -1423 0
-37 -1121 -1106 1423 0
-37 1121 292 0
-37 1121 877 0
-37 1121 541 0
-37 1121 1016 0
-37 1121 1315 -877 0
-37 1121 -1315 877 0
-37 1121 366 -1016 0
-37 1121 -366 1016 0
-37 1121 914 -292 0
-37 1121 -914 292 0
-37 1121 1106 -541 0
-37 1121 -1106 541 0
-37 1518 0
-37 14 -1315 0
-37 -14 1315 0
-37 1677 -366 0
-37 -1677 366 0
-37 500 -914 0
-37 -500 914 0
-37 1351 -1106 0
-37 -1351 1106 0
37 -1496 -182 0
37 -1496 -605 0
37 -1496 1598 0
37 -1496 272 0
37 -1496 889 -605 0
37 -1496 -889 605 0
37 -1496 83 -272 0
37 -1496 -83 272 0
37 -1496 986 -182 0
37 -1496 -986 182 0
37 -1496 615 -1598 0
37 -1496 -615 1598 0
37 1496 772 0
37 1496 727 0
37 1496 -540 0
37 1496 -1313 0
37 1496 889 -727 0
37 1496 -889 727 0
37 1496 83 -1313 0
37 1496 -83 1313 0
37 1496 986 -772 0
37 1496 -986 772 0
37 1496 615 -540 0
37 1496 -615 540 0
37 127 0
37 14 -889 0
37 -14 889 0
37 1677 -83 0
37 -1677 83 0
37 500 -986 0
37 -500 986 0
37 1351 -615 0
37 -1351 615 0
-977 -513 -1605 0
-977 -513 -705 0
-977 -513 -564 0
-977 -513 -334 0
-977 -513 965 -705 0
-977 -513 -965 705 0
-977 -513 928 -334 0
-977 -513 -928 334 0
-977 -513 1036 -1605 0
-977 -513 -1036 1605 0
-977 -513 788 -564 0
-977 -513 -788 564 0
-977 513 1055 0
-977 513 41 0
-977 513 352 0
-977 513 1433 0
-977 513 965 -41 0
-977 513 -965 41 0
-977 513 928 -1433 0
-977 513 -928 1433 0
-977 513 1036 -1055 0
-977 513 -1036 1055 0
-977 513 788 -352 0
-977 513 -788 352 0
-977 1718 0
-977 618 -965 0
-977 -618 965 0
-977 141 -928 0
-977 -141 928 0
-977 1103 -1036 0
-977 -1103 1036 0
-977 1444 -788 0
-977 -1444 788 0
977 -1054 -838 0
977 -1054 -636 0
977 -1054 90 0
977 -1054 1533 0
977 -1054 679 -636 0
977 -1054 -679 636 0
977 -1054 845 -1533 0
977 -1054 -845 1533 0
977 -1054 316 -838 0
977 -1054 -316 838 0
977 -1054 1451 -90 0
977 -1054 -1451 90 0
977 1054 1385 0
977 1054 1138 0
977 1054 -1068 0
977 1054 -760 0
977 1054 679 -1138 0
977 1054 -679 1138 0
977 1054 845 -760 0
977 1054 -845 760 0
977 1054 316 -1385 0
977 1054 -316 1385 0
977 1054 1451 -1068 0
977 1054 -1451 1068 0
977 153 0
977 618 -679 0
977 -618 679 0
977 141 -845 0
977 -141 845 0
977 1103 -316 0
977 -1103 316 0
977 1444 -1451 0
977 -1444 1451 0
-697 -10 -1170 0
-697 -10 -353 0
-697 -10 -1097 0
-697 -10 -796 0
-697 -10 710 -353 0
-697 -10 -710 353 0
-697 -10 1564 -796 0
-697 -10 -1564 796 0
-697 -10 612 -1170 0
-697 -10 -612 1170 0
-697 -10 97 -1097 0
-697 -10 -97 1097 0
-697 10 100 0
-697 10 60 0
-697 10 996 0
-697 10 488 0
-697 10 710 -60 0
-697 10 -710 60 0
-697 10 1564 -488 0
-697 10 -1564 488 0
-697 10 612 -100 0
-697 10 -612 100 0
-697 10 97 -996 0
-697 10 -97 996 0
-697 1762 0
-697 1743 -710 0
-697 -1743 710 0
-697 1406 -1564 0
-697 -1406 1564 0
-697 195 -612 0
-697 -195 612 0
-697 165 -97 0
-697 -165 97 0
697 -574 -1266 0
697 -574 -69 0
697 -574 1389 0
697 -574 1424 0
697 -574 1508 -69 0
697 -574 -1508 69 0
697 -574 1332 -1424 0
697 -574 -1332 1424 0
697 -574 956 -1266 0
697 -574 -956 1266 0
697 -574 664 -1389 0
697 -574 -664 1389 0
697 574 414 0
697 574 1733 0
697 574 -1462 0
697 574 -1555 0
697 574 1508 -1733 0
697 574 -1508 1733 0
697 574 1332 -1555 0
697 574 -1332 1555 0
697 574 956 -414 0
697 574 -956 414 0
697 574 664 -1462 0
697 574 -664 1462 0
697 1703 0
697 1743 -1508 0
697 -1743 1508 0
697 1406 -1332 0
697 -1406 1332 0
697 195 -956 0
697 -195 956 0
697 165 -664 0
697 -165 664 0
-1729 -660 -1164 0
-1729 -660 -277 0
-1729 -660 -578 0
-1729 -660 -1126 0
-1729 -660 1 -277 0
-1729 -660 -1 277 0
-1729 -660 1149 -1126 0
-1729 -660 -1149 1126 0
-1729 -660 506 -1164 0
-1729 -660 -506 1164 0
-1729 -660 1632 -578 0
-1729 -660 -1632 578 0
-1729 660 585 0
-1729 660 850 0
-1729 660 1425 0
-1729 660 1732 0
-1729 660 1 -850 0
-1729 660 -1 850 0
-1729 660 1149 -1732 0
-1729 660 -1149 1732 0
-1729 660 506 -585 0
-1729 660 -506 585 0
-1729 660 1632 -1425 0
-1729 660 -1632 1425 0
-1729 1240 0
-1729 647 -1 0
-1729 -647 1 0
-1729 1119 -1149 0
-1729 -1119 1149 0
-1729 1743 -506 0
-1729 -1743 506 0
-1729 1359 -1632 0
-1729 -1359 1632 0
1729 -756 -1551 0
1729 -756 -598 0
1729 -756 383 0
1729 -756 301 0
1729 -756 1143 -598 0
1729 -756 -1143 598 0
1729 -756 1654 -301 0
1729 -756 -1654 301 0
1729 -756 184 -1551 0
1729 -756 -184 1551 0
1729 -756 1268 -383 0
1729 -756 -1268 383 0
1729 756 667 0
1729 756 1227 0
1729 756 -1464 0
1729 756 -972 0
1729 756 1143 -1227 0
1729 756 -1143 1227 0
1729 756 1654 -972 0
1729 756 -1654 972 0
1729 756 184 -667 0
1729 756 -184 667 0
1729 756 1268 -1464 0
1729 756 -1268 1464 0
1729 649 0
1729 647 -1143 0
1729 -647 1143 0
1729 1119 -1654 0
1729 -1119 1654 0
1729 1743 -184 0
1729 -1743 184 0
1729 1359 -1268 0
1729 -1359 1268 0
-1095 -84 -751 0
-1095 -84 -293 0
-1095 -84 -1717 0
-1095 -84 -810 0
-1095 -84 50 -293 0
-1095 -84 -50 293 0
-1095 -84 269 -810 0
-1095 -84 -269 810 0
-1095 -84 179 -751 0
-1095 -84 -179 751 0
-1095 -84 1637 -1717 0
-1095 -84 -1637 1717 0
-1095 84 909 0
-1095 84 1223 0
-1095 84 528 0
-1095 84 1764 0
-1095 84 50 -1223 0
-1095 84 -50 1223 0
-1095 84 269 -1764 0
-1095 84 -269 1764 0
-1095 84 179 -909 0
-1095 84 -179 909 0
-1095 84 1637 -528 0
-1095 84 -1637 528 0
-1095 1172 0
-1095 418 -50 0
-1095 -418 50 0
-1095 247 -269 0
-1095 -247 269 0
-1095 573 -179 0
-1095 -573 179 0
-1095 1405 -1637 0
-1095 -1405 1637 0
1095 -1230 -1392 0
1095 -1230 -1150 0
1095 -1230 168 0
1095 -1230 1629 0
1095 -1230 1317 -1150 0
1095 -1230 -1317 1150 0
1095 -1230 511 -1629 0
1095 -1230 -511 1629 0
1095 -1230 502 -1392 0
1095 -1230 -502 1392 0
1095 -1230 919 -168 0
1095 -1230 -919 168 0
1095 1230 217 0
1095 1230 1727 0
1095 1230 -1132 0
1095 1230 -236 0
1095 1230 1317 -1727 0
1095 1230 -1317 1727 0
1095 1230 511 -236 0
1095 1230 -511 236 0
1095 1230 502 -217 0
1095 1230 -502 217 0
1095 1230 919 -1132 0
1095 1230 -919 1132 0
1095 245 0
1095 418 -1317 0
1095 -418 1317 0
1095 247 -511 0
1095 -247 511 0
1095 573 -502 0
1095 -573 502 0
1095 1405 -919 0
1095 -1405 919 0
-215 -333 -1344 0
-215 -333 -1404 0
-215 -333 -163 0
-215 -333 -1760 0
-215 -333 1369 -1404 0
-215 -333 -1369 1404 0
-215 -333 728 -1760 0
-215 -333 -728 1760 0
-215 -333 1281 -1344 0
-215 -333 -1281 1344 0
-215 -333 266 -163 0
-215 -333 -266 163 0
-215 333 1234 0
-215 333 887 0
-215 333 558 0
-215 333 1015 0
-215 333 1369 -887 0
-215 333 -1369 887 0
-215 333 728 -1015 0
-215 333 -728 1015 0
-215 333 1281 -1234 0
-215 333 -1281 1234 0
-215 333 266 -558 0
-215 333 -266 558 0
-215 718 0
-215 1611 -1369 0
-215 -1611 1369 0
-215 1312 -728 0
-215 -1312 728 0
-215 418 -1281 0
-215 -418 1281 0
-215 797 -266 0
-215 -797 266 0
215 -359 -1335 0
215 -359 -672 0
215 -359 1466 0
215 -359 113 0
215 -359 280 -672 0
215 -359 -280 672 0
215 -359 357 -113 0
215 -359 -357 113 0
215 -359 1570 -1335 0
215 -359 -1570 1335 0
215 -359 852 -1466 0
215 -359 -852 1466 0
215 359 1125 0
215 359 1026 0
215 359 -206 0
215 359 -401 0
215 359 280 -1026 0
215 359 -280 1026 0
215 359 357 -401 0
215 359 -357 401 0
215 359 1570 -1125 0
215 359 -1570 1125 0
215 359 852 -206 0
215 359 -852 206 0
215 1623 0
215 1611 -280 0
215 -1611 280 0
215 1312 -357 0
215 -1312 357 0
215 418 -1570 0
215 -418 1570 0
215 797 -852 0
215 -797 852 0
-1771 -1081 -131 0
-1771 -1081 -1592 0
-1771 -1081 -228 0
-1771 -1081 -1454 0
-1771 -1081 779 -1592 0
-1771 -1081 -779 1592 0
-1771 -1081 1735 -1454 0
-1771 -1081 -1735 1454 0
-1771 -1081 1179 -131 0
-1771 -1081 -1179 131 0
-1771 -1081 1326 -228 0
-1771 -1081 -1326 228 0
-1771 1081 1191 0
-1771 1081 1019 0
-1771 1081 1363 0
-1771 1081 1577 0
-1771 1081 779 -1019 0
-1771 1081 -779 1019 0
-1771 1081 1735 -1577 0
-1771 1081 -1735 1577 0
-1771 1081 1179 -1191 0
-1771 1081 -1179 1191 0
-1771 1081 1326 -1363 0
-1771 1081 -1326 1363 0
-1771 1162 0
-1771 1615 -779 0
-1771 -1615 779 0
-1771 750 -1735 0
-1771 -750 1735 0
-1771 325 -1179 0
-1771 -325 1179 0
-1771 1060 -1326 0
-1771 -1060 1326 0
1771 -1304 -1142 0
1771 -1304 -1689 0
1771 -1304 1299 0
1771 -1304 1192 0
1771 -1304 1296 -1689 0
1771 -1304 -1296 1689 0
1771 -1304 281 -1192 0
1771 -1304 -281 1192 0
1771 -1304 1265 -1142 0
1771 -1304 -1265 1142 0
1771 -1304 1391 -1299 0
1771 -1304 -1391 1299 0
1771 1304 654 0
1771 1304 411 0
1771 1304 -354 0
1771 1304 -1020 0
1771 1304 1296 -411 0
1771 1304 -1296 411 0
1771 1304 281 -1020 0
1771 1304 -281 1020 0
1771 1304 1265 -654 0
1771 1304 -1265 654 0
1771 1304 1391 -354 0
1771 1304 -1391 354 0
1771 1694 0
1771 1615 -1296 0
1771 -1615 1296 0
1771 750 -281 0
1771 -750 281 0
1771 325 -1265 0
1771 -325 1265 0
1771 1060 -1391 0
1771 -1060 1391 0
-1763 -951 -1534 0
-1763 -951 -1430 0
-1763 -951 -847 0
-1763 -951 -162 0
-1763 -951 1328 -1430 0
-1763 -951 -1328 1430 0
-1763 -951 1273 -162 0
-1763 -951 -1273 162 0
-1763 -951 969 -1534 0
-1763 -951 -969 1534 0
-1763 -951 1562 -847 0
-1763 -951 -1562 847 0
-1763 951 1137 0
-1763 951 865 0
-1763 951 816 0
-1763 951 114 0
-1763 951 1328 -865 0
-1763 951 -1328 865 0
-1763 951 1273 -114 0
-1763 951 -1273 114 0
-1763 951 969 -1137 0
-1763 951 -969 1137 0
-1763 951 1562 -816 0
-1763 951 -1562 816 0
-1763 1635 0
-1763 1116 -1328 0
-1763 -1116 1328 0
-1763 1442 -1273 0
-1763 -1442 1273 0
-1763 1615 -969 0
-1763 -1615 969 0
-1763 20 -1562 0
-1763 -20 1562 0
1763 -1500 -1470 0
1763 -1500 -122 0
1763 -1500 1517 0
1763 -1500 747 0
1763 -1500 1417 -122 0
1763 -1500 -1417 122 0
1763 -1500 1334 -747 0
1763 -1500 -1334 747 0
1763 -1500 826 -1470 0
1763 -1500 -826 1470 0
1763 -1500 199 -1517 0
1763 -1500 -199 1517 0
1763 1500 1290 0
1763 1500 537 0
1763 1500 -222 0
1763 1500 -1004 0
1763 1500 1417 -537 0
1763 1500 -1417 537 0
1763 1500 1334 -1004 0
1763 1500 -1334 1004 0
1763 1500 826 -1290 0
1763 1500 -826 1290 0
1763 1500 199 -222 0
1763 1500 -199 222 0
1763 611 0
1763 1116 -1417 0
1763 -1116 1417 0
1763 1442 -1334 0
1763 -1442 1334 0
1763 1615 -826 0
1763 -1615 826 0
1763 20 -199 0
1763 -20 199 0
-46 -1431 -345 0
-46 -1431 -944 0
-46 -1431 -844 0
-46 -1431 -997 0
-46 -1431 1583 -944 0
-46 -1431 -1583 944 0
-46 -1431 406 -997 0
-46 -1431 -406 997 0
-46 -1431 150 -345 0
-46 -1431 -150 345 0
-46 -1431 257 -844 0
-46 -1431 -257 844 0
-46 1431 1449 0
-46 1431 297 0
-46 1431 440 0
-46 1431 1387 0
-46 1431 1583 -297 0
-46 1431 -1583 297 0
-46 1431 406 -1387 0
-46 1431 -406 1387 0
-46 1431 150 -1449 0
-46 1431 -150 1449 0
-46 1431 257 -440 0
-46 1431 -257 440 0
-46 314 0
-46 835 -1583 0
-46 -835 1583 0
-46 350 -406 0
-46 -350 406 0
-46 1129 -150 0
-46 -1129 150 0
-46 1515 -257 0
-46 -1515 257 0
46 -509 -575 0
46 -509 -1468 0
46 -509 1306 0
46 -509 1723 0
46 -509 1659 -1468 0
46 -509 -1659 1468 0
46 -509 1128 -1723 0
46 -509 -1128 1723 0
46 -509 915 -575 0
46 -509 -915 575 0
46 -509 134 -1306 0
46 -509 -134 1306 0
46 509 1156 0
46 509 476 0
46 509 -1413 0
46 509 -758 0
46 509 1659 -476 0
46 509 -1659 476 0
46 509 1128 -758 0
46 509 -1128 758 0
46 509 915 -1156 0
46 509 -915 1156 0
46 509 134 -1413 0
46 509 -134 1413 0
46 1201 0
46 835 -1659 0
46 -835 1659 0
46 350 -1128 0
46 -350 1128 0
46 1129 -915 0
46 -1129 915 0
46 1515 -134 0
46 -1515 134 0
-313 -1460 -752 0
-313 -1460 -356 0
-313 -1460 -603 0
-313 -1460 -1541 0
-313 -1460 339 -356 0
-313 -1460 -339 356 0
-313 -1460 1698 -1541 0
-313 -1460 -1698 1541 0
-313 -1460 218 -752 0
-313 -1460 -218 752 0
-313 -1460 81 -603 0
-313 -1460 -81 603 0
-313 1460 916 0
-313 1460 309 0
-313 1460 1233 0
-313 1460 98 0
-313 1460 339 -309 0
-313 1460 -339 309 0
-313 1460 1698 -98 0
-313 1460 -1698 98 0
-313 1460 218 -916 0
-313 1460 -218 916 0
-313 1460 81 -1233 0
-313 1460 -81 1233 0
-313 1414 0
-313 744 -339 0
-313 -744 339 0
-313 616 -1698 0
-313 -616 1698 0
-313 1406 -218 0
-313 -1406 218 0
-313 1677 -81 0
-313 -1677 81 0
313 -152 -763 0
313 -152 -1554 0
313 -152 13 0
313 -152 287 0
313 -152 106 -1554 0
313 -152 -106 1554 0
313 -152 1499 -287 0
313 -152 -1499 287 0
313 -152 1754 -763 0
313 -152 -1754 763 0
313 -152 1730 -13 0
313 -152 -1730 13 0
313 152 246 0
313 152 433 0
313 152 -1221 0
313 152 -85 0
313 152 106 -433 0
313 152 -106 433 0
313 152 1499 -85 0
313 152 -1499 85 0
313 152 1754 -246 0
313 152 -1754 246 0
313 152 1730 -1221 0
313 152 -1730 1221 0
313 745 0
313 744 -106 0
313 -744 106 0
313 616 -1499 0
313 -616 1499 0
313 1406 -1754 0
313 -1406 1754 0
313 1677 -1730 0
313 -1677 1730 0
-712 -998 -1506 0
-712 -998 -1145 0
-712 -998 -591 0
-712 -998 -1291 0
-712 -998 263 -1145 0
-712 -998 -263 1145 0
-712 -998 375 -1291 0
-712 -998 -375 1291 0
-712 -998 596 -1506 0
-712 -998 -596 1506 0
-712 -998 1722 -591 0
-712 -998 -1722 591 0
-712 998 729 0
-712 998 216 0
-712 998 539 0
-712 998 405 0
-712 998 263 -216 0
-712 998 -263 216 0
-712 998 375 -405 0
-712 998 -375 405 0
-712 998 596 -729 0
-712 998 -596 729 0
-712 998 1722 -539 0
-712 998 -1722 539 0
-712 1653 0
-712 824 -263 0
-712 -824 263 0
-712 1596 -375 0
-712 -1596 375 0
-712 557 -596 0
-712 -557 596 0
-712 1744 -1722 0
-712 -1744 1722 0
712 -1067 -472 0
712 -1067 -608 0
712 -1067 211 0
712 -1067 471 0
712 -1067 462 -608 0
712 -1067 -462 608 0
712 -1067 1474 -471 0
712 -1067 -1474 471 0
712 -1067 410 -472 0
712 -1067 -410 472 0
712 -1067 519 -211 0
712 -1067 -519 211 0
712 1067 371 0
712 1067 1641 0
712 1067 -606 0
712 1067 -600 0
712 1067 462 -1641 0
712 1067 -462 1641 0
712 1067 1474 -600 0
712 1067 -1474 600 0
712 1067 410 -371 0
712 1067 -410 371 0
712 1067 519 -606 0
712 1067 -519 606 0
712 1238 0
712 824 -462 0
712 -824 462 0
712 1596 -1474 0
712 -1596 1474 0
712 557 -410 0
712 -557 410 0
712 1744 -519 0
712 -1744 519 0
-1749 -690 -234 0
-1749 -690 -783 0
-1749 -690 -251 0
-1749 -690 -962 0
-1749 -690 568 -783 0
-1749 -690 -568 783 0
-1749 -690 200 -962 0
-1749 -690 -200 962 0
-1749 -690 950 -234 0
-1749 -690 -950 234 0
-1749 -690 757 -251 0
-1749 -690 -757 251 0
-1749 690 1183 0
-1749 690 1303 0
-1749 690 214 0
-1749 690 633 0
-1749 690 568 -1303 0
-1749 690 -568 1303 0
-1749 690 200 -633 0
-1749 690 -200 633 0
-1749 690 950 -1183 0
-1749 690 -950 1183 0
-1749 690 757 -214 0
-1749 690 -757 214 0
-1749 485 0
-1749 1589 -568 0
-1749 -1589 568 0
-1749 1664 -200 0
-1749 -1664 200 0
-1749 1130 -950 0
-1749 -1130 950 0
-1749 901 -757 0
-1749 -901 757 0
1749 -1250 -804 0
1749 -1250 -492 0
1749 -1250 125 0
1749 -1250 1516 0
1749 -1250 290 -492 0
1749 -1250 -290 492 0
1749 -1250 1278 -1516 0
1749 -1250 -1278 1516 0
1749 -1250 16 -804 0
1749 -1250 -16 804 0
1749 -1250 769 -125 0
1749 -1250 -769 125 0
1749 1250 252 0
1749 1250 470 0
1749 1250 -1267 0
1749 1250 -687 0
1749 1250 290 -470 0
1749 1250 -290 470 0
1749 1250 1278 -687 0
1749 1250 -1278 687 0
1749 1250 16 -252 0
1749 1250 -16 252 0
1749 1250 769 -1267 0
1749 1250 -769 1267 0
1749 1226 0
1749 1589 -290 0
1749 -1589 290 0
1749 1664 -1278 0
1749 -1664 1278 0
1749 1130 -16 0
1749 -1130 16 0
1749 901 -769 0
1749 -901 769 0
-147 -443 -1650 0
-147 -443 -1118 0
-147 -443 -1619 0
-147 -443 -1094 0
-147 -443 1622 -1118 0
-147 -443 -1622 1118 0
-147 -443 1361 -1094 0
-147 -443 -1361 1094 0
-147 -443 593 -1650 0
-147 -443 -593 1650 0
-147 -443 653 -1619 0
-147 -443 -653 1619 0
-147 443 176 0
-147 443 651 0
-147 443 702 0
-147 443 413 0
-147 443 1622 -651 0
-147 443 -1622 651 0
-147 443 1361 -413 0
-147 443 -1361 413 0
-147 443 593 -176 0
-147 443 -593 176 0
-147 443 653 -702 0
-147 443 -653 702 0
-147 230 0
-147 1381 -1622 0
-147 -1381 1622 0
-147 298 -1361 0
-147 -298 1361 0
-147 902 -593 0
-147 -902 593 0
-147 1260 -653 0
-147 -1260 653 0
147 -1161 -1231 0
147 -1161 -586 0
147 -1161 1302 0
147 -1161 829 0
147 -1161 551 -586 0
147 -1161 -551 586 0
147 -1161 449 -829 0
147 -1161 -449 829 0
147 -1161 526 -1231 0
147 -1161 -526 1231 0
147 -1161 1065 -1302 0
147 -1161 -1065 1302 0
147 1161 23 0
147 1161 1393 0
147 1161 -1362 0
147 1161 -30 0
147 1161 551 -1393 0
147 1161 -551 1393 0
147 1161 449 -30 0
147 1161 -449 30 0
147 1161 526 -23 0
147 1161 -526 23 0
147 1161 1065 -1362 0
147 1161 -1065 1362 0
147 1282 0
147 1381 -551 0
147 -1381 551 0
147 298 -449 0
147 -298 449 0
147 902 -526 0
147 -902 526 0
147 1260 -1065 0
147 -1260 1065 0
-614 -45 -504 0
-614 -45 -1429 0
-614 -45 -740 0
-614 -45 -1397 0
-614 -45 534 -1429 0
-614 -45 -534 1429 0
-614 -45 547 -1397 0
-614 -45 -547 1397 0
-614 -45 482 -504 0
-614 -45 -482 504 0
-614 -45 1084 -740 0
-614 -45 -1084 740 0
-614 45 1018 0
-614 45 138 0
-614 45 273 0
-614 45 866 0
-614 45 534 -138 0
-614 45 -534 138 0
-614 45 547 -866 0
-614 45 -547 866 0
-614 45 482 -1018 0
-614 45 -482 1018 0
-614 45 1084 -273 0
-614 45 -1084 273 0
-614 220 0
-614 1692 -534 0
-614 -1692 534 0
-614 524 -547 0
-614 -524 547 0
-614 1381 -482 0
-614 -1381 482 0
-614 1374 -1084 0
-614 -1374 1084 0
614 -1440 -1249 0
614 -1440 -989 0
614 -1440 479 0
614 -1440 964 0
614 -1440 731 -989 0
614 -1440 -731 989 0
614 -1440 1209 -964 0
614 -1440 -1209 964 0
614 -1440 91 -1249 0
614 -1440 -91 1249 0
614 -1440 1434 -479 0
614 -1440 -1434 479 0
614 1440 1330 0
614 1440 268 0
614 1440 -577 0
614 1440 -921 0
614 1440 731 -268 0
614 1440 -731 268 0
614 1440 1209 -921 0
614 1440 -1209 921 0
614 1440 91 -1330 0
614 1440 -91 1330 0
614 1440 1434 -577 0
614 1440 -1434 577 0
614 36 0
614 1692 -731 0
614 -1692 731 0
614 524 -1209 0
614 -524 1209 0
614 1381 -91 0
614 -1381 91 0
614 1374 -1434 0
614 -1374 1434 0
-1034 -1720 -1480 0
-1034 -1720 -1237 0
-1034 -1720 -428 0
-1034 -1720 -927 0
-1034 -1720 644 -1237 0
-1034 -1720 -644 1237 0
-1034 -1720 340 -927 0
-1034 -1720 -340 927 0
-1034 -1720 1228 -1480 0
-1034 -1720 -1228 1480 0
-1034 -1720 1014 -428 0
-1034 -1720 -1014 428 0
-1034 1720 1655 0
-1034 1720 1447 0
-1034 1720 33 0
-1034 1720 180 0
-1034 1720 644 -1447 0
-1034 1720 -644 1447 0
-1034 1720 340 -180 0
-1034 1720 -340 180 0
-1034 1720 1228 -1655 0
-1034 1720 -1228 1655 0
-1034 1720 1014 -33 0
-1034 1720 -1014 33 0
-1034 161 0
-1034 326 -644 0
-1034 -326 644 0
-1034 49 -340 0
-1034 -49 340 0
-1034 1558 -1228 0
-1034 -1558 1228 0
-1034 516 -1014 0
-1034 -516 1014 0
1034 -94 -1678 0
1034 -94 -1037 0
1034 -94 1485 0
1034 -94 597 0
1034 -94 71 -1037 0
1034 -94 -71 1037 0
1034 -94 135 -597 0
1034 -94 -135 597 0
1034 -94 949 -1678 0
1034 -94 -949 1678 0
1034 -94 582 -1485 0
1034 -94 -582 1485 0
1034 94 1006 0
1034 94 120 0
1034 94 -893 0
1034 94 -741 0
1034 94 71 -120 0
1034 94 -71 120 0
1034 94 135 -741 0
1034 94 -135 741 0
1034 94 949 -1006 0
1034 94 -949 1006 0
1034 94 582 -893 0
1034 94 -582 893 0
1034 455 0
1034 326 -71 0
1034 -326 71 0
1034 49 -135 0
1034 -49 135 0
1034 1558 -949 0
1034 -1558 949 0
1034 516 -582 0
1034 -516 582 0
-832 -477 -474 0
-832 -477 -1198 0
-832 -477 -724 0
-832 -477 -1680 0
-832 -477 1069 -1198 0
-832 -477 -1069 1198 0
-832 -477 303 -1680 0
-832 -477 -303 1680 0
-832 -477 1120 -474 0
-832 -477 -1120 474 0
-832 -477 631 -724 0
-832 -477 -631 724 0
-832 477 398 0
-832 477 748 0
-832 477 1420 0
-832 477 486 0
-832 477 1069 -748 0
-832 477 -1069 748 0
-832 477 303 -486 0
-832 477 -303 486 0
-832 477 1120 -398 0
-832 477 -1120 398 0
-832 477 631 -1420 0
-832 477 -631 1420 0
-832 17 0
-832 1144 -1069 0
-832 -1144 1069 0
-832 854 -303 0
-832 -854 303 0
-832 1664 -1120 0
-832 -1664 1120 0
-832 1456 -631 0
-832 -1456 631 0
832 -773 -1070 0
832 -773 -1752 0
832 -773 899 0
832 -773 1379 0
832 -773 175 -1752 0
832 -773 -175 1752 0
832 -773 907 -1379 0
832 -773 -907 1379 0
832 -773 108 -1070 0
832 -773 -108 1070 0
832 -773 423 -899 0
832 -773 -423 899 0
832 773 390 0
832 773 496 0
832 773 -1504 0
832 773 -1263 0
832 773 175 -496 0
832 773 -175 496 0
832 773 907 -1263 0
832 773 -907 1263 0
832 773 108 -390 0
832 773 -108 390 0
832 773 423 -1504 0
832 773 -423 1504 0
832 713 0
832 1144 -175 0
832 -1144 175 0
832 854 -907 0
832 -854 907 0
832 1664 -108 0
832 -1664 108 0
832 1456 -423 0
832 -1456 423 0
-1552 -1535 -1336 0
-1552 -1535 -442 0
-1552 -1535 -1712 0
-1552 -1535 -622 0
-1552 -1535 380 -442 0
-1552 -1535 -380 442 0
-1552 -1535 1687 -622 0
-1552 -1535 -1687 622 0
-1552 -1535 1099 -1336 0
-1552 -1535 -1099 1336 0
-1552 -1535 1668 -1712 0
-1552 -1535 -1668 1712 0
-1552 1535 1375 0
-1552 1535 848 0
-1552 1535 386 0
-1552 1535 73 0
-1552 1535 380 -848 0
-1552 1535 -380 848 0
-1552 1535 1687 -73 0
-1552 1535 -1687 73 0
-1552 1535 1099 -1375 0
-1552 1535 -1099 1375 0
-1552 1535 1668 -386 0
-1552 1535 -1668 386 0
-1552 1086 0
-1552 1416 -380 0
-1552 -1416 380 0
-1552 1318 -1687 0
-1552 -1318 1687 0
-1552 1144 -1099 0
-1552 -1144 1099 0
-1552 646 -1668 0
-1552 -646 1668 0
1552 -1256 -1710 0
1552 -1256 -1104 0
1552 -1256 1253 0
1552 -1256 1725 0
1552 -1256 776 -1104 0
1552 -1256 -776 1104 0
1552 -1256 1251 -1725 0
1552 -1256 -1251 1725 0
1552 -1256 1048 -1710 0
1552 -1256 -1048 1710 0
1552 -1256 1487 -1253 0
1552 -1256 -1487 1253 0
1552 1256 831 0
1552 1256 1157 0
1552 1256 -392 0
1552 1256 -9 0
1552 1256 776 -1157 0
1552 1256 -776 1157 0
1552 1256 1251 -9 0
1552 1256 -1251 9 0
1552 1256 1048 -831 0
1552 1256 -1048 831 0
1552 1256 1487 -392 0
1552 1256 -1487 392 0
1552 1547 0
1552 1416 -776 0
1552 -1416 776 0
1552 1318 -1251 0
1552 -1318 1251 0
1552 1144 -1048 0
1552 -1144 1048 0
1552 646 -1487 0
1552 -646 1487 0
-1255 -1135 -1159 0
-1255 -1135 -1497 0
-1255 -1135 -1321 0
-1255 -1135 -1277 0
-1255 -1135 1484 -1497 0
-1255 -1135 -1484 1497 0
-1255 -1135 813 -1277 0
-1255 -1135 -813 1277 0
-1255 -1135 1649 -1159 0
-1255 -1135 -1649 1159 0
-1255 -1135 1245 -1321 0
-1255 -1135 -1245 1321 0
-1255 1135 659 0
-1255 1135 1039 0
-1255 1135 363 0
-1255 1135 1613 0
-1255 1135 1484 -1039 0
-1255 1135 -1484 1039 0
-1255 1135 813 -1613 0
-1255 1135 -813 1613 0
-1255 1135 1649 -659 0
-1255 1135 -1649 659 0
-1255 1135 1245 -363 0
-1255 1135 -1245 363 0
-1255 1199 0
-1255 172 -1484 0
-1255 -172 1484 0
-1255 1608 -813 0
-1255 -1608 813 0
-1255 1416 -1649 0
-1255 -1416 1649 0
-1255 146 -1245 0
-1255 -146 1245 0
1255 -1588 -954 0
1255 -1588 -192 0
1255 -1588 1591 0
1255 -1588 862 0
1255 -1588 917 -192 0
1255 -1588 -917 192 0
1255 -1588 1606 -862 0
1255 -1588 -1606 862 0
1255 -1588 491 -954 0
1255 -1588 -491 954 0
1255 -1588 105 -1591 0
1255 -1588 -105 1591 0
1255 1588 588 0
1255 1588 1546 0
1255 1588 -1089 0
1255 1588 -1088 0
1255 1588 917 -1546 0
1255 1588 -917 1546 0
1255 1588 1606 -1088 0
1255 1588 -1606 1088 0
1255 1588 491 -588 0
1255 1588 -491 588 0
1255 1588 105 -1089 0
1255 1588 -105 1089 0
1255 650 0
1255 172 -917 0
1255 -172 917 0
1255 1608 -1606 0
1255 -1608 1606 0
1255 1416 -491 0
1255 -1416 491 0
1255 146 -105 0
1255 -146 105 0
-842 -1082 -945 0
-842 -1082 -1633 0
-842 -1082 -1728 0
-842 -1082 -584 0
-842 -1082 1206 -1633 0
-842 -1082 -1206 1633 0
-842 -1082 1761 -584 0
-842 -1082 -1761 584 0
-842 -1082 1322 -945 0
-842 -1082 -1322 945 0
-842 -1082 1022 -1728 0
-842 -1082 -1022 1728 0
-842 1082 342 0
-842 1082 695 0
-842 1082 1085 0
-842 1082 346 0
-842 1082 1206 -695 0
-842 1082 -1206 695 0
-842 1082 1761 -346 0
-842 1082 -1761 346 0
-842 1082 1322 -342 0
-842 1082 -1322 342 0
-842 1082 1022 -1085 0
-842 1082 -1022 1085 0
-842 761 0
-842 722 -1206 0
-842 -722 1206 0
-842 1670 -1761 0
-842 -1670 1761 0
-842 298 -1322 0
-842 -298 1322 0
-842 1525 -1022 0
-842 -1525 1022 0
842 -876 -1371 0
842 -876 -1574 0
842 -876 61 0
842 -876 1331 0
842 -876 906 -1574 0
842 -876 -906 1574 0
842 -876 1471 -1331 0
842 -876 -1471 1331 0
842 -876 696 -1371 0
842 -876 -696 1371 0
842 -876 1367 -61 0
842 -876 -1367 61 0
842 876 1563 0
842 876 910 0
842 876 -1100 0
842 876 -897 0
842 876 906 -910 0
842 876 -906 910 0
842 876 1471 -897 0
842 876 -1471 897 0
842 876 696 -1563 0
842 876 -696 1563 0
842 876 1367 -1100 0
842 876 -1367 1100 0
842 365 0
842 722 -906 0
842 -722 906 0
842 1670 -1471 0
842 -1670 1471 0
842 298 -696 0
842 -298 696 0
842 1525 -1367 0
842 -1525 1367 0
-1407 -1320 -1671 0
-1407 -1320 -151 0
-1407 -1320 -1096 0
-1407 -1320 -1575 0
-1407 -1320 507 -151 0
-1407 -1320 -507 151 0
-1407 -1320 613 -1575 0
-1407 -1320 -613 1575 0
-1407 -1320 1467 -1671 0
-1407 -1320 -1467 1671 0
-1407 -1320 15 -1096 0
-1407 -1320 -15 1096 0
-1407 1320 341 0
-1407 1320 1435 0
-1407 1320 400 0
-1407 1320 802 0
-1407 1320 507 -1435 0
-1407 1320 -507 1435 0
-1407 1320 613 -802 0
-1407 1320 -613 802 0
-1407 1320 1467 -341 0
-1407 1320 -1467 341 0
-1407 1320 15 -400 0
-1407 1320 -15 400 0
-1407 1483 0
-1407 770 -507 0
-1407 -770 507 0
-1407 1463 -613 0
-1407 -1463 613 0
-1407 49 -1467 0
-1407 -49 1467 0
-1407 1318 -15 0
-1407 -1318 15 0
1407 -749 -299 0
1407 -749 -1346 0
1407 -749 1252 0
1407 -749 1087 0
1407 -749 1003 -1346 0
1407 -749 -1003 1346 0
1407 -749 464 -1087 0
1407 -749 -464 1087 0
1407 -749 694 -299 0
1407 -749 -694 299 0
1407 -749 1285 -1252 0
1407 -749 -1285 1252 0
1407 749 75 0
1407 749 698 0
1407 749 -676 0
1407 749 -1314 0
1407 749 1003 -698 0
1407 749 -1003 698 0
1407 749 464 -1314 0
1407 749 -464 1314 0
1407 749 694 -75 0
1407 749 -694 75 0
1407 749 1285 -676 0
1407 749 -1285 676 0
1407 1205 0
1407 770 -1003 0
1407 -770 1003 0
1407 1463 -464 0
1407 -1463 464 0
1407 49 -694 0
1407 -49 694 0
1407 1318 -1285 0
1407 -1318 1285 0
-1524 -1092 -72 0
-1524 -1092 -315 0
-1524 -1092 -567 0
-1524 -1092 -1163 0
-1524 -1092 1168 -315 0
-1524 -1092 -1168 315 0
-1524 -1092 732 -1163 0
-1524 -1092 -732 1163 0
-1524 -1092 1047 -72 0
-1524 -1092 -1047 72 0
-1524 -1092 1148 -567 0
-1524 -1092 -1148 567 0
-1524 1092 1550 0
-1524 1092 139 0
-1524 1092 190 0
-1524 1092 468 0
-1524 1092 1168 -139 0
-1524 1092 -1168 139 0
-1524 1092 732 -468 0
-1524 1092 -732 468 0
-1524 1092 1047 -1550 0
-1524 1092 -1047 1550 0
-1524 1092 1148 -190 0
-1524 1092 -1148 190 0
-1524 77 0
-1524 261 -1168 0
-1524 -261 1168 0
-1524 1216 -732 0
-1524 -1216 732 0
-1524 350 -1047 0
-1524 -350 1047 0
-1524 1002 -1148 0
-1524 -1002 1148 0
1524 -1513 -791 0
1524 -1513 -1642 0
1524 -1513 849 0
1524 -1513 674 0
1524 -1513 465 -1642 0
1524 -1513 -465 1642 0
1524 -1513 1661 -674 0
1524 -1513 -1661 674 0
1524 -1513 1098 -791 0
1524 -1513 -1098 791 0
1524 -1513 550 -849 0
1524 -1513 -550 849 0
1524 1513 819 0
1524 1513 1057 0
1524 1513 -70 0
1524 1513 -737 0
1524 1513 465 -1057 0
1524 1513 -465 1057 0
1524 1513 1661 -737 0
1524 1513 -1661 737 0
1524 1513 1098 -819 0
1524 1513 -1098 819 0
1524 1513 550 -70 0
1524 1513 -550 70 0
1524 370 0
1524 261 -465 0
1524 -261 465 0
1524 1216 -1661 0
1524 -1216 1661 0
1524 350 -1098 0
1524 -350 1098 0
1524 1002 -550 0
1524 -1002 550 0
-1300 -1190 -177 0
-1300 -1190 -940 0
-1300 -1190 -1624 0
-1300 -1190 -1059 0
-1300 -1190 32 -940 0
-1300 -1190 -32 940 0
-1300 -1190 805 -1059 0
-1300 -1190 -805 1059 0
-1300 -1190 1270 -177 0
-1300 -1190 -1270 177 0
-1300 -1190 66 -1624 0
-1300 -1190 -66 1624 0
-1300 1190 562 0
-1300 1190 879 0
-1300 1190 648 0
-1300 1190 1674 0
-1300 1190 32 -879 0
-1300 1190 -32 879 0
-1300 1190 805 -1674 0
-1300 1190 -805 1674 0
-1300 1190 1270 -562 0
-1300 1190 -1270 562 0
-1300 1190 66 -648 0
-1300 1190 -66 648 0
-1300 355 0
-1300 305 -32 0
-1300 -305 32 0
-1300 853 -805 0
-1300 -853 805 0
-1300 261 -1270 0
-1300 -261 1270 0
-1300 1644 -66 0
-1300 -1644 66 0
1300 -1380 -1056 0
1300 -1380 -331 0
1300 -1380 820 0
1300 -1380 446 0
1300 -1380 1448 -331 0
1300 -1380 -1448 331 0
1300 -1380 1702 -446 0
1300 -1380 -1702 446 0
1300 -1380 628 -1056 0
1300 -1380 -628 1056 0
1300 -1380 1042 -820 0
1300 -1380 -1042 820 0
1300 1380 1553 0
1300 1380 424 0
1300 1380 -864 0
1300 1380 -1531 0
1300 1380 1448 -424 0
1300 1380 -1448 424 0
1300 1380 1702 -1531 0
1300 1380 -1702 1531 0
1300 1380 628 -1553 0
1300 1380 -628 1553 0
1300 1380 1042 -864 0
1300 1380 -1042 864 0
1300 1421 0
1300 305 -1448 0
1300 -305 1448 0
1300 853 -1702 0
1300 -853 1702 0
1300 261 -628 0
1300 -261 628 0
1300 1644 -1042 0
1300 -1644 1042 0
-1660 -1316 -1625 0
-1660 -1316 -1029 0
-1660 -1316 -1578 0
-1660 -1316 -942 0
-1660 -1316 589 -1029 0
-1660 -1316 -589 1029 0
-1660 -1316 196 -942 0
-1660 -1316 -196 942 0
-1660 -1316 1408 -1625 0
-1660 -1316 -1408 1625 0
-1660 -1316 1155 -1578 0
-1660 -1316 -1155 1578 0
-1660 1316 209 0
-1660 1316 52 0
-1660 1316 1011 0
-1660 1316 982 0
-1660 1316 589 -52 0
-1660 1316 -589 52 0
-1660 1316 196 -982 0
-1660 1316 -196 982 0
-1660 1316 1408 -209 0
-1660 1316 -1408 209 0
-1660 1316 1155 -1011 0
-1660 1316 -1155 1011 0
-1660 1481 0
-1660 409 -589 0
-1660 -409 589 0
-1660 542 -196 0
-1660 -542 196 0
-1660 524 -1408 0
-1660 -524 1408 0
-1660 207 -1155 0
-1660 -207 1155 0
1660 -1647 -1309 0
1660 -1647 -318 0
1660 -1647 1422 0
1660 -1647 463 0
1660 -1647 494 -318 0
1660 -1647 -494 318 0
1660 -1647 764 -463 0
1660 -1647 -764 463 0
1660 -1647 1174 -1309 0
1660 -1647 -1174 1309 0
1660 -1647 1358 -1422 0
1660 -1647 -1358 1422 0
1660 1647 1766 0
1660 1647 232 0
1660 1647 -1184 0
1660 1647 -490 0
1660 1647 494 -232 0
1660 1647 -494 232 0
1660 1647 764 -490 0
1660 1647 -764 490 0
1660 1647 1174 -1766 0
1660 1647 -1174 1766 0
1660 1647 1358 -1184 0
1660 1647 -1358 1184 0
1660 1715 0
1660 409 -494 0
1660 -409 494 0
1660 542 -764 0
1660 -542 764 0
1660 524 -1174 0
1660 -524 1174 0
1660 207 -1358 0
1660 -207 1358 0
-663 -708 -374 0
-663 -708 -1279 0
-663 -708 -441 0
-663 -708 -1071 0
-663 -708 1340 -1279 0
-663 -708 -1340 1279 0
-663 -708 680 -1071 0
-663 -708 -680 1071 0
-663 -708 21 -374 0
-663 -708 -21 374 0
-663 -708 1181 -441 0
-663 -708 -1181 441 0
-663 708 1212 0
-663 708 863 0
-663 708 1700 0
-663 708 1229 0
-663 708 1340 -863 0
-663 708 -1340 863 0
-663 708 680 -1229 0
-663 708 -680 1229 0
-663 708 21 -1212 0
-663 708 -21 1212 0
-663 708 1181 -1700 0
-663 708 -1181 1700 0
-663 275 0
-663 855 -1340 0
-663 -855 1340 0
-663 738 -680 0
-663 -738 680 0
-663 409 -21 0
-663 -409 21 0
-663 1442 -1181 0
-663 -1442 1181 0
663 -267 -358 0
663 -267 -197 0
663 -267 870 0
663 -267 140 0
663 -267 1595 -197 0
663 -267 -1595 197 0
663 -267 435 -140 0
663 -267 -435 140 0
663 -267 1394 -358 0
663 -267 -1394 358 0
663 -267 1522 -870 0
663 -267 -1522 870 0
663 267 1364 0
663 267 143 0
663 267 -1197 0
663 267 -1319 0
663 267 1595 -143 0
663 267 -1595 143 0
663 267 435 -1319 0
663 267 -435 1319 0
663 267 1394 -1364 0
663 267 -1394 1364 0
663 267 1522 -1197 0
663 267 -1522 1197 0
663 522 0
663 855 -1595 0
663 -855 1595 0
663 738 -435 0
663 -738 435 0
663 409 -1394 0
663 -409 1394 0
663 1442 -1522 0
663 -1442 1522 0
-302 -1767 -675 0
-302 -1767 -792 0
-302 -1767 -1294 0
-302 -1767 -1600 0
-302 -1767 388 -792 0
-302 -1767 -388 792 0
-302 -1767 483 -1600 0
-302 -1767 -483 1600 0
-302 -1767 1139 -675 0
-302 -1767 -1139 675 0
-302 -1767 112 -1294 0
-302 -1767 -112 1294 0
-302 1767 1236 0
-302 1767 638 0
-302 1767 67 0
-302 1767 1746 0
-302 1767 388 -638 0
-302 1767 -388 638 0
-302 1767 483 -1746 0
-302 1767 -483 1746 0
-302 1767 1139 -1236 0
-302 1767 -1139 1236 0
-302 1767 112 -67 0
-302 1767 -112 67 0
-302 348 0
-302 361 -388 0
-302 -361 388 0
-302 148 -483 0
-302 -148 483 0
-302 1216 -1139 0
-302 -1216 1139 0
-302 247 -112 0
-302 -247 112 0
302 -212 -580 0
302 -212 -1707 0
302 -212 1731 0
302 -212 1539 0
302 -212 976 -1707 0
302 -212 -976 1707 0
302 -212 360 -1539 0
302 -212 -360 1539 0
302 -212 905 -580 0
302 -212 -905 580 0
302 -212 1473 -1731 0
302 -212 -1473 1731 0
302 212 571 0
302 212 711 0
302 212 -12 0
302 212 -1225 0
302 212 976 -711 0
302 212 -976 711 0
302 212 360 -1225 0
302 212 -360 1225 0
302 212 905 -571 0
302 212 -905 571 0
302 212 1473 -12 0
302 212 -1473 12 0
302 347 0
302 361 -976 0
302 -361 976 0
302 148 -360 0
302 -148 360 0
302 1216 -905 0
302 -1216 905 0
302 247 -1473 0
302 -247 1473 0
-56 -828 -1365 0
-56 -828 -1586 0
-56 -828 -420 0
-56 -828 -276 0
-56 -828 806 -1586 0
-56 -828 -806 1586 0
-56 -828 256 -276 0
-56 -828 -256 276 0
-56 -828 993 -1365 0
-56 -828 -993 1365 0
-56 -828 1052 -420 0
-56 -828 -1052 420 0
-56 828 59 0
-56 828 107 0
-56 828 1479 0
-56 828 86 0
-56 828 806 -107 0
-56 828 -806 107 0
-56 828 256 -86 0
-56 828 -256 86 0
-56 828 993 -59 0
-56 828 -993 59 0
-56 828 1052 -1479 0
-56 828 -1052 1479 0
-56 836 0
-56 604 -806 0
-56 -604 806 0
-56 1311 -256 0
-56 -1311 256 0
-56 750 -993 0
-56 -750 993 0
-56 1596 -1052 0
-56 -1596 1052 0
56 -1512 -231 0
56 -1512 -35 0
56 -1512 115 0
56 -1512 981 0
56 -1512 1399 -35 0
56 -1512 -1399 35 0
56 -1512 875 -981 0
56 -1512 -875 981 0
56 -1512 1090 -231 0
56 -1512 -1090 231 0
56 -1512 1602 -115 0
56 -1512 -1602 115 0
56 1512 961 0
56 1512 1775 0
56 1512 -1593 0
56 1512 -337 0
56 1512 1399 -1775 0
56 1512 -1399 1775 0
56 1512 875 -337 0
56 1512 -875 337 0
56 1512 1090 -961 0
56 1512 -1090 961 0
56 1512 1602 -1593 0
56 1512 -1602 1593 0
56 1325 0
56 604 -1399 0
56 -604 1399 0
56 1311 -875 0
56 -1311 875 0
56 750 -1090 0
56 -750 1090 0
56 1596 -1602 0
56 -1596 1602 0
-545 -1526 -1469 0
-545 -1526 -92 0
-545 -1526 -1021 0
-545 -1526 -255 0
-545 -1526 987 -92 0
-545 -1526 -987 92 0
-545 -1526 1640 -255 0
-545 -1526 -1640 255 0
-545 -1526 634 -1469 0
-545 -1526 -634 1469 0
-545 -1526 1544 -1021 0
-545 -1526 -1544 1021 0
-545 1526 430 0
-545 1526 1214 0
-545 1526 1713 0
-545 1526 607 0
-545 1526 987 -1214 0
-545 1526 -987 1214 0
-545 1526 1640 -607 0
-545 1526 -1640 607 0
-545 1526 634 -430 0
-545 1526 -634 430 0
-545 1526 1544 -1713 0
-545 1526 -1544 1713 0
-545 735 0
-545 923 -987 0
-545 -923 987 0
-545 617 -1640 0
-545 -617 1640 0
-545 604 -634 0
-545 -604 634 0
-545 1312 -1544 0
-545 -1312 1544 0
545 -1207 -1770 0
545 -1207 -1402 0
545 -1207 203 0
545 -1207 1283 0
545 -1207 918 -1402 0
545 -1207 -918 1402 0
545 -1207 1158 -1283 0
545 -1207 -1158 1283 0
545 -1207 958 -1770 0
545 -1207 -958 1770 0
545 -1207 800 -203 0
545 -1207 -800 203 0
545 1207 924 0
545 1207 1418 0
545 1207 -1147 0
545 1207 -630 0
545 1207 918 -1418 0
545 1207 -918 1418 0
545 1207 1158 -630 0
545 1207 -1158 630 0
545 1207 958 -924 0
545 1207 -958 924 0
545 1207 800 -1147 0
545 1207 -800 1147 0
545 1062 0
545 923 -918 0
545 -923 918 0
545 617 -1158 0
545 -617 1158 0
545 604 -958 0
545 -604 958 0
545 1312 -800 0
545 -1312 800 0
-884 -1343 -508 0
-884 -1343 -1074 0
-884 -1343 -65 0
-884 -1343 -224 0
-884 -1343 323 -1074 0
-884 -1343 -323 1074 0
-884 -1343 878 -224 0
-884 -1343 -878 224 0
-884 -1343 466 -508 0
-884 -1343 -466 508 0
-884 -1343 734 -65 0
-884 -1343 -734 65 0
-884 1343 444 0
-884 1343 1347 0
-884 1343 984 0
-884 1343 1566 0
-884 1343 323 -1347 0
-884 1343 -323 1347 0
-884 1343 878 -1566 0
-884 1343 -878 1566 0
-884 1343 466 -444 0
-884 1343 -466 444 0
-884 1343 734 -984 0
-884 1343 -734 984 0
-884 1136 0
-884 1222 -323 0
-884 -1222 323 0
-884 74 -878 0
-884 -74 878 0
-884 1224 -466 0
-884 -1224 466 0
-884 1446 -734 0
-884 -1446 734 0
884 -1455 -1584 0
884 -1455 -1146 0
884 -1455 447 0
884 -1455 419 0
884 -1455 1246 -1146 0
884 -1455 -1246 1146 0
884 -1455 1741 -419 0
884 -1455 -1741 419 0
884 -1455 1073 -1584 0
884 -1455 -1073 1584 0
884 -1455 900 -447 0
884 -1455 -900 447 0
884 1455 1494 0
884 1455 187 0
884 1455 -183 0
884 1455 -1639 0
884 1455 1246 -187 0
884 1455 -1246 187 0
884 1455 1741 -1639 0
884 1455 -1741 1639 0
884 1455 1073 -1494 0
884 1455 -1073 1494 0
884 1455 900 -183 0
884 1455 -900 183 0
884 1747 0
884 1222 -1246 0
884 -1222 1246 0
884 74 -1741 0
884 -74 1741 0
884 1224 -1073 0
884 -1224 1073 0
884 1446 -900 0
884 -1446 900 0
-469 -456 -1691 0
-469 -456 -1491 0
-469 -456 -896 0
-469 -456 -213 0
-469 -456 48 -1491 0
-469 -456 -48 1491 0
-469 -456 786 -213 0
-469 -456 -786 213 0
-469 -456 225 -1691 0
-469 -456 -225 1691 0
-469 -456 1000 -896 0
-469 -456 -1000 896 0
-469 456 88 0
-469 456 1064 0
-469 456 210 0
-469 456 1134 0
-469 456 48 -1064 0
-469 456 -48 1064 0
-469 456 786 -1134 0
-469 456 -786 1134 0
-469 456 225 -88 0
-469 456 -225 88 0
-469 456 1000 -210 0
-469 456 -1000 210 0
-469 546 0
-469 569 -48 0
-469 -569 48 0
-469 555 -786 0
-469 -555 786 0
-469 853 -225 0
-469 -853 225 0
-469 1463 -1000 0
-469 -1463 1000 0
469 -795 -536 0
469 -795 -1215 0
469 -795 1288 0
469 -795 1403 0
469 -795 5 -1215 0
469 -795 -5 1215 0
469 -795 677 -1403 0
469 -795 -677 1403 0
469 -795 154 -536 0
469 -795 -154 536 0
469 -795 412 -1288 0
469 -795 -412 1288 0
469 795 793 0
469 795 830 0
469 795 -132 0
469 795 -992 0
469 795 5 -830 0
469 795 -5 830 0
469 795 677 -992 0
469 795 -677 992 0
469 795 154 -793 0
469 795 -154 793 0
469 795 412 -132 0
469 795 -412 132 0
469 271 0
469 569 -5 0
469 -569 5 0
469 555 -677 0
469 -555 677 0
469 853 -154 0
469 -853 154 0
469 1463 -412 0
469 -1463 412 0
-425 -1360 -1505 0
-425 -1360 -978 0
-425 -1360 -1372 0
-425 -1360 -239 0
-425 -1360 725 -978 0
-425 -1360 -725 978 0
-425 -1360 156 -239 0
-425 -1360 -156 239 0
-425 -1360 1152 -1505 0
-425 -1360 -1152 1505 0
-425 -1360 1756 -1372 0
-425 -1360 -1756 1372 0
-425 1360 1626 0
-425 1360 759 0
-425 1360 704 0
-425 1360 592 0
-425 1360 725 -759 0
-425 1360 -725 759 0
-425 1360 156 -592 0
-425 1360 -156 592 0
-425 1360 1152 -1626 0
-425 1360 -1152 1626 0
-425 1360 1756 -704 0
-425 1360 -1756 704 0
-425 227 0
-425 1053 -725 0
-425 -1053 725 0
-425 1658 -156 0
-425 -1658 156 0
-425 569 -1152 0
-425 -569 1152 0
-425 542 -1756 0
-425 -542 1756 0
425 -692 -129 0
425 -692 -833 0
425 -692 1220 0
425 -692 307 0
425 -692 1532 -833 0
425 -692 -1532 833 0
425 -692 291 -307 0
425 -692 -291 307 0
425 -692 1699 -129 0
425 -692 -1699 129 0
425 -692 34 -1220 0
425 -692 -34 1220 0
425 692 1634 0
425 692 559 0
425 692 -1298 0
425 692 -308 0
425 692 1532 -559 0
425 692 -1532 559 0
425 692 291 -308 0
425 692 -291 308 0
425 692 1699 -1634 0
425 692 -1699 1634 0
425 692 34 -1298 0
425 692 -34 1298 0
425 461 0
425 1053 -1532 0
425 -1053 1532 0
425 1658 -291 0
425 -1658 291 0
425 569 -1699 0
425 -569 1699 0
425 542 -34 0
425 -542 34 0
-739 -1437 -372 0
-739 -1437 -1665 0
-739 -1437 -39 0
-739 -1437 -264 0
-739 -1437 903 -1665 0
-739 -1437 -903 1665 0
-739 -1437 51 -264 0
-739 -1437 -51 264 0
-739 -1437 344 -372 0
-739 -1437 -344 372 0
-739 -1437 427 -39 0
-739 -1437 -427 39 0
-739 1437 904 0
-739 1437 1490 0
-739 1437 1538 0
-739 1437 1662 0
-739 1437 903 -1490 0
-739 1437 -903 1490 0
-739 1437 51 -1662 0
-739 1437 -51 1662 0
-739 1437 344 -904 0
-739 1437 -344 904 0
-739 1437 427 -1538 0
-739 1437 -427 1538 0
-739 1472 0
-739 1141 -903 0
-739 -1141 903 0
-739 733 -51 0
-739 -733 51 0
-739 854 -344 0
-739 -854 344 0
-739 74 -427 0
-739 -74 427 0
739 -765 -312 0
739 -765 -1675 0
739 -765 681 0
739 -765 503 0
739 -765 1398 -1675 0
739 -765 -1398 1675 0
739 -765 873 -503 0
739 -765 -873 503 0
739 -765 1295 -312 0
739 -765 -1295 312 0
739 -765 104 -681 0
739 -765 -104 681 0
739 765 1576 0
739 765 78 0
739 765 -1045 0
739 765 -1061 0
739 765 1398 -78 0
739 765 -1398 78 0
739 765 873 -1061 0
739 765 -873 1061 0
739 765 1295 -1576 0
739 765 -1295 1576 0
739 765 104 -1045 0
739 765 -104 1045 0
739 244 0
739 1141 -1398 0
739 -1141 1398 0
739 733 -873 0
739 -733 873 0
739 854 -1295 0
739 -854 1295 0
739 74 -104 0
739 -74 104 0
-351 -1685 -111 0
-351 -1685 -1072 0
-351 -1685 -1457 0
-351 -1685 -655 0
-351 -1685 1017 -1072 0
-351 -1685 -1017 1072 0
-351 -1685 1341 -655 0
-351 -1685 -1341 655 0
-351 -1685 926 -111 0
-351 -1685 -926 111 0
-351 -1685 1772 -1457 0
-351 -1685 -1772 1457 0
-351 1685 872 0
-351 1685 1167 0
-351 1685 6 0
-351 1685 1043 0
-351 1685 1017 -1167 0
-351 1685 -1017 1167 0
-351 1685 1341 -1043 0
-351 1685 -1341 1043 0
-351 1685 926 -872 0
-351 1685 -926 872 0
-351 1685 1772 -6 0
-351 1685 -1772 6 0
-351 478 0
-351 102 -1017 0
-351 -102 1017 0
-351 497 -1341 0
-351 -497 1341 0
-351 166 -926 0
-351 -166 926 0
-351 1119 -1772 0
-351 -1119 1772 0
351 -553 -946 0
351 -553 -29 0
351 -553 1439 0
351 -553 1382 0
351 -553 911 -29 0
351 -553 -911 29 0
351 -553 1188 -1382 0
351 -553 -1188 1382 0
351 -553 31 -946 0
351 -553 -31 946 0
351 -553 278 -1439 0
351 -553 -278 1439 0
351 553 487 0
351 553 1705 0
351 553 -1338 0
351 553 -1153 0
351 553 911 -1705 0
351 553 -911 1705 0
351 553 1188 -1153 0
351 553 -1188 1153 0
351 553 31 -487 0
351 553 -31 487 0
351 553 278 -1338 0
351 553 -278 1338 0
351 155 0
351 102 -911 0
351 -102 911 0
351 497 -1188 0
351 -497 1188 0
351 166 -31 0
351 -166 31 0
351 1119 -278 0
351 -1119 278 0
-933 -1352 -843 0
-933 -1352 -610 0
-933 -1352 -373 0
-933 -1352 -1621 0
-933 -1352 389 -610 0
-933 -1352 -389 610 0
-933 -1352 254 -1621 0
-933 -1352 -254 1621 0
-933 -1352 957 -843 0
-933 -1352 -957 843 0
-933 -1352 160 -373 0
-933 -1352 -160 373 0
-933 1352 1271 0
-933 1352 1049 0
-933 1352 943 0
-933 1352 89 0
-933 1352 389 -1049 0
-933 1352 -389 1049 0
-933 1352 254 -89 0
-933 1352 -254 89 0
-933 1352 957 -1271 0
-933 1352 -957 1271 0
-933 1352 160 -943 0
-933 1352 -160 943 0
-933 330 0
-933 1585 -389 0
-933 -1585 389 0
-933 629 -254 0
-933 -629 254 0
-933 102 -957 0
-933 -102 957 0
-933 1311 -160 0
-933 -1311 160 0
933 -1711 -1276 0
933 -1711 -260 0
933 -1711 436 0
933 -1711 1107 0
933 -1711 1123 -260 0
933 -1711 -1123 260 0
933 -1711 1254 -1107 0
933 -1711 -1254 1107 0
933 -1711 1297 -1276 0
933 -1711 -1297 1276 0
933 -1711 242 -436 0
933 -1711 -242 436 0
933 1711 688 0
933 1711 717 0
933 1711 -599 0
933 1711 -133 0
933 1711 1123 -717 0
933 1711 -1123 717 0
933 1711 1254 -133 0
933 1711 -1254 133 0
933 1711 1297 -688 0
933 1711 -1297 688 0
933 1711 242 -599 0
933 1711 -242 599 0
933 3 0
933 1585 -1123 0
933 -1585 1123 0
933 629 -1254 0
933 -629 1254 0
933 102 -1297 0
933 -102 1297 0
933 1311 -242 0
933 -1311 242 0
-533 -1521 -101 0
-533 -1521 -1195 0
-533 -1521 -1186 0
-533 -1521 -840 0
-533 -1521 1165 -1195 0
-533 -1521 -1165 1195 0
-533 -1521 64 -840 0
-533 -1521 -64 840 0
-533 -1521 249 -101 0
-533 -1521 -249 101 0
-533 -1521 514 -1186 0
-533 -1521 -514 1186 0
-533 1521 1310 0
-533 1521 403 0
-533 1521 789 0
-533 1521 1117 0
-533 1521 1165 -403 0
-533 1521 -1165 403 0
-533 1521 64 -1117 0
-533 1521 -64 1117 0
-533 1521 249 -1310 0
-533 1521 -249 1310 0
-533 1521 514 -789 0
-533 1521 -514 789 0
-533 538 0
-533 93 -1165 0
-533 -93 1165 0
-533 300 -64 0
-533 -300 64 0
-533 1585 -249 0
-533 -1585 249 0
-533 617 -514 0
-533 -617 514 0
533 -130 -1124 0
533 -130 -205 0
533 -130 1502 0
533 -130 1628 0
533 -130 590 -205 0
533 -130 -590 205 0
533 -130 1609 -1628 0
533 -130 -1609 1628 0
533 -130 1182 -1124 0
533 -130 -1182 1124 0
533 -130 1115 -1502 0
533 -130 -1115 1502 0
533 130 1101 0
533 130 1579 0
533 130 -402 0
533 130 -422 0
533 130 590 -1579 0
533 130 -590 1579 0
533 130 1609 -422 0
533 130 -1609 422 0
533 130 1182 -1101 0
533 130 -1182 1101 0
533 130 1115 -402 0
533 130 -1115 402 0
533 1058 0
533 93 -590 0
533 -93 590 0
533 300 -1609 0
533 -300 1609 0
533 1585 -1182 0
533 -1585 1182 0
533 617 -1115 0
533 -617 1115 0
-1378 -817 -912 0
-1378 -817 -1441 0
-1378 -817 -811 0
-1378 -817 -208 0
-1378 -817 1258 -1441 0
-1378 -817 -1258 1441 0
-1378 -817 1768 -208 0
-1378 -817 -1768 208 0
-1378 -817 317 -912 0
-1378 -817 -317 912 0
-1378 -817 328 -811 0
-1378 -817 -328 811 0
-1378 817 80 0
-1378 817 103 0
-1378 817 1357 0
-1378 817 645 0
-1378 817 1258 -103 0
-1378 817 -1258 103 0
-1378 817 1768 -645 0
-1378 817 -1768 645 0
-1378 817 317 -80 0
-1378 817 -317 80 0
-1378 817 328 -1357 0
-1378 817 -328 1357 0
-1378 743 0
-1378 1493 -1258 0
-1378 -1493 1258 0
-1378 968 -1768 0
-1378 -968 1768 0
-1378 497 -317 0
-1378 -497 317 0
-1378 738 -328 0
-1378 -738 328 0
1378 -1774 -1248 0
1378 -1774 -523 0
1378 -1774 489 0
1378 -1774 1556 0
1378 -1774 552 -523 0
1378 -1774 -552 523 0
1378 -1774 438 -1556 0
1378 -1774 -438 1556 0
1378 -1774 1032 -1248 0
1378 -1774 -1032 1248 0
1378 -1774 47 -489 0
1378 -1774 -47 489 0
1378 1774 1133 0
1378 1774 1450 0
1378 1774 -529 0
1378 1774 -1200 0
1378 1774 552 -1450 0
1378 1774 -552 1450 0
1378 1774 438 -1200 0
1378 1774 -438 1200 0
1378 1774 1032 -1133 0
1378 1774 -1032 1133 0
1378 1774 47 -529 0
1378 1774 -47 529 0
1378 1498 0
1378 1493 -552 0
1378 -1493 552 0
1378 968 -438 0
1378 -968 438 0
1378 497 -1032 0
1378 -497 1032 0
1378 738 -47 0
1378 -738 47 0
-861 -1349 -387 0
-861 -1349 -1063 0
-861 -1349 -4 0
-861 -1349 -377 0
-861 -1349 1401 -1063 0
-861 -1349 -1401 1063 0
-861 -1349 1573 -377 0
-861 -1349 -1573 377 0
-861 -1349 188 -387 0
-861 -1349 -188 387 0
-861 -1349 189 -4 0
-861 -1349 -189 4 0
-861 1349 128 0
-861 1349 431 0
-861 1349 1599 0
-861 1349 1083 0
-861 1349 1401 -431 0
-861 1349 -1401 431 0
-861 1349 1573 -1083 0
-861 1349 -1573 1083 0
-861 1349 188 -128 0
-861 1349 -188 128 0
-861 1349 189 -1599 0
-861 1349 -189 1599 0
-861 1453 0
-861 754 -1401 0
-861 -754 1401 0
-861 707 -1573 0
-861 -707 1573 0
-861 1493 -188 0
-861 -1493 188 0
-861 1608 -189 0
-861 -1608 189 0
861 -439 -1753 0
861 -439 -642 0
861 -439 1030 0
861 -439 784 0
861 -439 1210 -642 0
861 -439 -1210 642 0
861 -439 1409 -784 0
861 -439 -1409 784 0
861 -439 1557 -1753 0
861 -439 -1557 1753 0
861 -439 1631 -1030 0
861 -439 -1631 1030 0
861 439 1109 0
861 439 457 0
861 439 -2 0
861 439 -262 0
861 439 1210 -457 0
861 439 -1210 457 0
861 439 1409 -262 0
861 439 -1409 262 0
861 439 1557 -1109 0
861 439 -1557 1109 0
861 439 1631 -2 0
861 439 -1631 2 0
861 119 0
861 754 -1210 0
861 -754 1210 0
861 707 -1409 0
861 -707 1409 0
861 1493 -1557 0
861 -1493 1557 0
861 1608 -1631 0
861 -1608 1631 0
-1618 -1724 -1213 0
-1618 -1724 -7 0
-1618 -1724 -499 0
-1618 -1724 -1580 0
-1618 -1724 1681 -7 0
-1618 -1724 -1681 7 0
-1618 -1724 939 -1580 0
-1618 -1724 -939 1580 0
-1618 -1724 1111 -1213 0
-1618 -1724 -1111 1213 0
-1618 -1724 587 -499 0
-1618 -1724 -587 499 0
-1618 1724 1333 0
-1618 1724 1203 0
-1618 1724 1264 0
-1618 1724 319 0
-1618 1724 1681 -1203 0
-1618 1724 -1681 1203 0
-1618 1724 939 -319 0
-1618 1724 -939 319 0
-1618 1724 1111 -1333 0
-1618 1724 -1111 1333 0
-1618 1724 587 -1264 0
-1618 1724 -587 1264 0
-1618 117 0
-1618 42 -1681 0
-1618 -42 1681 0
-1618 891 -939 0
-1618 -891 939 0
-1618 148 -1111 0
-1618 -148 1111 0
-1618 616 -587 0
-1618 -616 587 0
1618 -1010 -548 0
1618 -1010 -343 0
1618 -1010 857 0
1618 -1010 226 0
1618 -1010 701 -343 0
1618 -1010 -701 343 0
1618 -1010 856 -226 0
1618 -1010 -856 226 0
1618 -1010 25 -548 0
1618 -1010 -25 548 0
1618 -1010 883 -857 0
1618 -1010 -883 857 0
1618 1010 689 0
1618 1010 1773 0
1618 1010 -684 0
1618 1010 -1503 0
1618 1010 701 -1773 0
1618 1010 -701 1773 0
1618 1010 856 -1503 0
1618 1010 -856 1503 0
1618 1010 25 -689 0
1618 1010 -25 689 0
1618 1010 883 -684 0
1618 1010 -883 684 0
1618 768 0
1618 42 -701 0
1618 -42 701 0
1618 891 -856 0
1618 -891 856 0
1618 148 -25 0
1618 -148 25 0
1618 616 -883 0
1618 -616 883 0
-450 -1676 -1376 0
-450 -1676 -1478 0
-450 -1676 -248 0
-450 -1676 -1548 0
-450 -1676 1023 -1478 0
-450 -1676 -1023 1478 0
-450 -1676 985 -1548 0
-450 -1676 -985 1548 0
-450 -1676 1572 -1376 0
-450 -1676 -1572 1376 0
-450 -1676 801 -248 0
-450 -1676 -801 248 0
-450 1676 1243 0
-450 1676 295 0
-450 1676 219 0
-450 1676 382 0
-450 1676 1023 -295 0
-450 1676 -1023 295 0
-450 1676 985 -382 0
-450 1676 -985 382 0
-450 1676 1572 -1243 0
-450 1676 -1572 1243 0
-450 1676 801 -219 0
-450 1676 -801 219 0
-450 531 0
-450 288 -1023 0
-450 -288 1023 0
-450 515 -985 0
-450 -515 985 0
-450 42 -1572 0
-450 -42 1572 0
-450 300 -801 0
-450 -300 801 0
450 -1603 -1076 0
450 -1603 -1077 0
450 -1603 808 0
450 -1603 999 0
450 -1603 995 -1077 0
450 -1603 -995 1077 0
450 -1603 1540 -999 0
450 -1603 -1540 999 0
450 -1603 983 -1076 0
450 -1603 -983 1076 0
450 -1603 394 -808 0
450 -1603 -394 808 0
450 1603 1388 0
450 1603 1432 0
450 1603 -931 0
450 1603 -1307 0
450 1603 995 -1432 0
450 1603 -995 1432 0
450 1603 1540 -1307 0
450 1603 -1540 1307 0
450 1603 983 -1388 0
450 1603 -983 1388 0
450 1603 394 -931 0
450 1603 -394 931 0
450 686 0
450 288 -995 0
450 -288 995 0
450 515 -1540 0
450 -515 1540 0
450 42 -983 0
450 -42 983 0
450 300 -394 0
450 -300 394 0
-570 -201 -1748 0
-570 -201 -1284 0
-570 -201 -975 0
-570 -201 -1051 0
-570 -201 716 -1284 0
-570 -201 -716 1284 0
-570 -201 1353 -1051 0
-570 -201 -1353 1051 0
-570 -201 1415 -1748 0
-570 -201 -1415 1748 0
-570 -201 609 -975 0
-570 -201 -609 975 0
-570 201 311 0
-570 201 1514 0
-570 201 1587 0
-570 201 874 0
-570 201 716 -1514 0
-570 201 -716 1514 0
-570 201 1353 -874 0
-570 201 -1353 874 0
-570 201 1415 -311 0
-570 201 -1415 311 0
-570 201 609 -1587 0
-570 201 -609 1587 0
-570 723 0
-570 1507 -716 0
-570 -1507 716 0
-570 841 -1353 0
-570 -841 1353 0
-570 1658 -1415 0
-570 -1658 1415 0
-570 515 -609 0
-570 -515 609 0
570 -289 -821 0
570 -289 -53 0
570 -289 565 0
570 -289 324 0
570 -289 68 -53 0
570 -289 -68 53 0
570 -289 286 -324 0
570 -289 -286 324 0
570 -289 699 -821 0
570 -289 -699 821 0
570 -289 1436 -565 0
570 -289 -1436 565 0
570 289 1383 0
570 289 1013 0
570 289 -1648 0
570 289 -637 0
570 289 68 -1013 0
570 289 -68 1013 0
570 289 286 -637 0
570 289 -286 637 0
570 289 699 -1383 0
570 289 -699 1383 0
570 289 1436 -1648 0
570 289 -1436 1648 0
570 1714 0
570 1507 -68 0
570 -1507 68 0
570 841 -286 0
570 -841 286 0
570 1658 -699 0
570 -1658 699 0
570 515 -1436 0
570 -515 1436 0
1589 -1130 0
-1589 1130 0
1692 -902 0
-1692 902 0
326 -1582 0
-326 1582 0
172 -901 0
-172 901 0
722 -1260 0
-722 1260 0
770 -349 0
-770 349 0
305 -1515 0
-305 1515 0
855 -1374 0
-855 1374 0
361 -1002 0
-361 1002 0
923 -621 0
-923 621 0
1222 -1224 0
-1222 1224 0
1053 -149 0
-1053 149 0
1141 -656 0
-1141 656 0
505 -1114 0
-505 1114 0
1758 -809 0
-1758 809 0
458 -362 0
-458 362 0
1670 -1525 0
-1670 1525 0
14 -1704 0
-14 1704 0
1683 -556 0
-1683 556 0
555 -1459 0
-555 1459 0
618 -1103 0
-618 1103 0
744 -583 0
-744 583 0
93 -166 0
-93 166 0
141 -1444 0
-141 1444 0
859 -1742 0
-859 1742 0
754 -581 0
-754 581 0
288 -1405 0
-288 1405 0
733 -1446 0
-733 1446 0
1507 -207 0
-1507 207 0
891 -1351 0
-891 1351 0
968 -20 0
-968 20 0
629 -1744 0
-629 1744 0
841 -797 0
-841 797 0
707 -146 0
-707 146 0
824 -322 0
-824 322 0
647 -1697 0
-647 1697 0
173 -44 0
-173 44 0
1611 -573 0
-1611 573 0
1116 -325 0
-1116 325 0
835 -991 0
-835 991 0
