p cnf 2437 5182
w 1 0.5
w 2 0.5
w 3 0.5
w 4 0.5
w 5 0.5
w 6 0.5
w 7 0.5
w 8 0.5
w 9 0.5
w 10 0.5
w 11 0.7946487003035404
w 12 0.5
w 13 0.5
w 14 0.5
w 15 0.5
w 16 0.5
w 17 0.5
w 18 0.5
w 19 0.5
w 20 0.5
w 21 0.5
w 22 0.5
w 23 0.5
w 24 0.5
w 25 0.5
w 26 0.6234080780445208
w 27 0.5
w 28 0.5
w 29 0.5
w 30 0.5
w 31 0.5
w 32 0.5
w 33 0.7266164302139807
w 34 0.5
w 35 0.5
w 36 0.5
w 37 0.5
w 38 0.5
w 39 0.5
w 40 0.5
w 41 0.5
w 42 0.5
w 43 0.8752429625942721
w 44 0.5
w 45 0.5
w 46 0.5
w 47 0.5
w 48 0.5
w 49 0.5
w 50 0.5
w 51 0.5
w 52 0.5
w 53 0.5
w 54 0.5
w 55 0.5
w 56 0.5
w 57 0.5
w 58 0.5
w 59 0.5
w 60 0.5
w 61 0.5
w 62 0.5
w 63 0.5
w 64 0.5
w 65 0.5
w 66 0.5
w 67 0.5
w 68 0.6511893022601046
w 69 0.5
w 70 0.5
w 71 0.5
w 72 0.5
w 73 0.5
w 74 0.5
w 75 0.5
w 76 0.5
w 77 0.5
w 78 0.5
w 79 0.5
w 80 0.5
w 81 0.5
w 82 0.5
w 83 0.5
w 84 0.5
w 85 0.5
w 86 0.5
w 87 0.5
w 88 0.5
w 89 0.5
w 90 0.5
w 91 0.5
w 92 0.5
w 93 0.5
w 94 0.5
w 95 0.5
w 96 0.5
w 97 0.5
w 98 0.5
w 99 0.5
w 100 0.5
w 101 0.5
w 102 0.5
w 103 0.5
w 104 0.34507580458616166
w 105 0.5
w 106 0.5
w 107 0.5
w 108 0.5
w 109 0.5
w 110 0.5
w 111 0.5
w 112 0.5
w 113 0.7009811797887302
w 114 0.5
w 115 0.5
w 116 0.5
w 117 0.5
w 118 0.5
w 119 0.5
w 120 0.5
w 121 0.5
w 122 0.5
w 123 0.5
w 124 0.5
w 125 0.5
w 126 0.5
w 127 0.5
w 128 0.5
w 129 0.5
w 130 0.5
w 131 0.5
w 132 0.5
w 133 0.5
w 134 0.5
w 135 0.5
w 136 0.5
w 137 0.5
w 138 0.5
w 139 0.5
w 140 0.864928924104838
w 141 0.5
w 142 0.5
w 143 0.5
w 144 0.5
w 145 0.5
w 146 0.5
w 147 0.5
w 148 0.5
w 149 0.5
w 150 0.5
w 151 0.5
w 152 0.5
w 153 0.5
w 154 0.5
w 155 0.5
w 156 0.5
w 157 0.5
w 158 0.5
w 159 0.5
w 160 0.5
w 161 0.5
w 162 0.5
w 163 0.5
w 164 0.5
w 165 0.5
w 166 0.5
w 167 0.5
w 168 0.5
w 169 0.5
w 170 0.5
w 171 0.5
w 172 0.5
w 173 0.5
w 174 0.5
w 175 0.5
w 176 0.5
w 177 0.7800396824006237
w 178 0.4485058353151984
w 179 0.5
w 180 0.5
w 181 0.5
w 182 0.5
w 183 0.5
w 184 0.5
w 185 0.5
w 186 0.5
w 187 0.5
w 188 0.5
w 189 0.5
w 190 0.5
w 191 0.5
w 192 0.5
w 193 0.5
w 194 0.5
w 195 0.5
w 196 0.5
w 197 0.230213887712826
w 198 0.5
w 199 0.5
w 200 0.5
w 201 0.5
w 202 0.5
w 203 0.5
w 204 0.5
w 205 0.5
w 206 0.5
w 207 0.5
w 208 0.5
w 209 0.5
w 210 0.5
w 211 0.5
w 212 0.5
w 213 0.5
w 214 0.5
w 215 0.5
w 216 0.5
w 217 0.5
w 218 0.5
w 219 0.5
w 220 0.5
w 221 0.5
w 222 0.5
w 223 0.5
w 224 0.5
w 225 0.5
w 226 0.5
w 227 0.5
w 228 0.5
w 229 0.5
w 230 0.5
w 231 0.5
w 232 0.5
w 233 0.5
w 234 0.5
w 235 0.5
w 236 0.5
w 237 0.5
w 238 0.5
w 239 0.5
w 240 0.5
w 241 0.5
w 242 0.5
w 243 0.5
w 244 0.5
w 245 0.5
w 246 0.5
w 247 0.5
w 248 0.14302511653912048
w 249 0.5
w 250 0.5
w 251 0.5
w 252 0.5
w 253 0.5
w 254 0.5
w 255 0.5
w 256 0.5
w 257 0.5
w 258 0.24426559753196264
w 259 0.5
w 260 0.5
w 261 0.5
w 262 0.5
w 263 0.5
w 264 0.5
w 265 0.5
w 266 0.5
w 267 0.5
w 268 0.5
w 269 0.798880901654445
w 270 0.5
w 271 0.5
w 272 0.5
w 273 0.5
w 274 0.5
w 275 0.5
w 276 0.5
w 277 0.5
w 278 0.5
w 279 0.5
w 280 0.5
w 281 0.756856849245874
w 282 0.5
w 283 0.5
w 284 0.5
w 285 0.5
w 286 0.5
w 287 0.5
w 288 0.5
w 289 0.5
w 290 0.5
w 291 0.5
w 292 0.5
w 293 0.5
w 294 0.5
w 295 0.5
w 296 0.5
w 297 0.5
w 298 0.5
w 299 0.5
w 300 0.5
w 301 0.5
w 302 0.5
w 303 0.5
w 304 0.5
w 305 0.5
w 306 0.5
w 307 0.5
w 308 0.5
w 309 0.5
w 310 0.5
w 311 0.5
w 312 0.5
w 313 0.5
w 314 0.5
w 315 0.5
w 316 0.5
w 317 0.5
w 318 0.5
w 319 0.5
w 320 0.5
w 321 0.5
w 322 0.5
w 323 0.5
w 324 0.5
w 325 0.5
w 326 0.5
w 327 0.5
w 328 0.5
w 329 0.5
w 330 0.5
w 331 0.5
w 332 0.5
w 333 0.5
w 334 0.5
w 335 0.5
w 336 0.5
w 337 0.5
w 338 0.5
w 339 0.5
w 340 0.5
w 341 0.5
w 342 0.5
w 343 0.5
w 344 0.5
w 345 0.5
w 346 0.5
w 347 0.5
w 348 0.5
w 349 0.5
w 350 0.5
w 351 0.5
w 352 0.5
w 353 0.5
w 354 0.5
w 355 0.5
w 356 0.5
w 357 0.5
w 358 0.5
w 359 0.5
w 360 0.5
w 361 0.5
w 362 0.5
w 363 0.5
w 364 0.5
w 365 0.5
w 366 0.5
w 367 0.5
w 368 0.5
w 369 0.5
w 370 0.5
w 371 0.5
w 372 0.5
w 373 0.5
w 374 0.5
w 375 0.6291287237164478
w 376 0.5
w 377 0.5
w 378 0.5
w 379 0.5
w 380 0.5
w 381 0.5
w 382 0.5
w 383 0.5
w 384 0.5
w 385 0.5
w 386 0.5
w 387 0.5
w 388 0.5
w 389 0.5
w 390 0.5
w 391 0.5
w 392 0.5
w 393 0.5
w 394 0.5
w 395 0.5
w 396 0.5
w 397 0.5
w 398 0.5
w 399 0.5
w 400 0.5
w 401 0.5
w 402 0.5
w 403 0.5
w 404 0.5
w 405 0.5
w 406 0.5
w 407 0.5
w 408 0.5
w 409 0.5
w 410 0.5
w 411 0.5
w 412 0.5
w 413 0.5
w 414 0.5
w 415 0.5
w 416 0.5
w 417 0.38298016613243796
w 418 0.5
w 419 0.5
w 420 0.5
w 421 0.48254471838478935
w 422 0.5
w 423 0.5
w 424 0.5
w 425 0.5
w 426 0.5
w 427 0.1819983259734078
w 428 0.5
w 429 0.5
w 430 0.5
w 431 0.5
w 432 0.5
w 433 0.5
w 434 0.5
w 435 0.5
w 436 0.5
w 437 0.5
w 438 0.5
w 439 0.5
w 440 0.5
w 441 0.5
w 442 0.5
w 443 0.5
w 444 0.5
w 445 0.5
w 446 0.6531721809369552
w 447 0.5
w 448 0.5
w 449 0.5
w 450 0.5
w 451 0.5
w 452 0.5
w 453 0.5
w 454 0.5
w 455 0.5
w 456 0.5
w 457 0.5
w 458 0.5
w 459 0.5
w 460 0.5
w 461 0.5
w 462 0.5
w 463 0.5
w 464 0.5
w 465 0.5
w 466 0.5
w 467 0.5
w 468 0.5
w 469 0.5
w 470 0.5
w 471 0.5
w 472 0.5
w 473 0.5
w 474 0.5
w 475 0.5
w 476 0.5
w 477 0.5
w 478 0.5
w 479 0.5
w 480 0.5
w 481 0.5
w 482 0.5
w 483 0.5
w 484 0.5
w 485 0.5
w 486 0.5
w 487 0.5
w 488 0.5
w 489 0.5
w 490 0.5
w 491 0.5
w 492 0.5
w 493 0.5
w 494 0.5
w 495 0.5
w 496 0.5
w 497 0.5
w 498 0.5
w 499 0.5
w 500 0.5
w 501 0.5
w 502 0.5
w 503 0.5
w 504 0.5
w 505 0.5
w 506 0.5
w 507 0.5
w 508 0.5
w 509 0.5
w 510 0.5
w 511 0.5
w 512 0.5
w 513 0.5
w 514 0.5
w 515 0.5
w 516 0.5
w 517 0.5
w 518 0.5
w 519 0.5
w 520 0.3682305331929581
w 521 0.19055329584815708
w 522 0.5
w 523 0.5
w 524 0.5
w 525 0.5
w 526 0.5
w 527 0.5
w 528 0.5
w 529 0.5
w 530 0.5
w 531 0.5
w 532 0.5
w 533 0.5
w 534 0.5
w 535 0.5
w 536 0.5
w 537 0.5
w 538 0.5
w 539 0.5
w 540 0.5
w 541 0.5
w 542 0.5
w 543 0.5
w 544 0.5
w 545 0.5
w 546 0.5
w 547 0.5
w 548 0.5
w 549 0.5
w 550 0.5
w 551 0.5
w 552 0.5
w 553 0.5
w 554 0.5
w 555 0.5
w 556 0.5
w 557 0.5
w 558 0.5
w 559 0.5
w 560 0.5
w 561 0.5
w 562 0.5
w 563 0.5
w 564 0.5
w 565 0.5
w 566 0.5
w 567 0.5
w 568 0.5
w 569 0.5
w 570 0.5
w 571 0.5
w 572 0.5
w 573 0.5
w 574 0.5
w 575 0.5
w 576 0.5
w 577 0.5
w 578 0.5
w 579 0.5
w 580 0.5
w 581 0.5
w 582 0.5
w 583 0.5
w 584 0.5
w 585 0.5
w 586 0.5
w 587 0.5
w 588 0.5
w 589 0.5
w 590 0.5
w 591 0.5
w 592 0.5
w 593 0.5
w 594 0.5
w 595 0.5
w 596 0.5
w 597 0.5
w 598 0.5
w 599 0.5
w 600 0.5
w 601 0.5
w 602 0.5
w 603 0.5
w 604 0.5
w 605 0.5
w 606 0.5
w 607 0.5
w 608 0.5
w 609 0.5
w 610 0.5
w 611 0.5
w 612 0.5
w 613 0.5
w 614 0.5
w 615 0.5
w 616 0.5
w 617 0.5
w 618 0.5
w 619 0.5
w 620 0.5
w 621 0.5
w 622 0.5
w 623 0.5
w 624 0.5
w 625 0.5
w 626 0.5
w 627 0.5
w 628 0.5
w 629 0.5
w 630 0.5
w 631 0.5
w 632 0.5
w 633 0.5
w 634 0.5
w 635 0.5
w 636 0.21949212337781893
w 637 0.5
w 638 0.5
w 639 0.5
w 640 0.5
w 641 0.5
w 642 0.5
w 643 0.5
w 644 0.5
w 645 0.5
w 646 0.5
w 647 0.5
w 648 0.5
w 649 0.5
w 650 0.5
w 651 0.5
w 652 0.5
w 653 0.5
w 654 0.5
w 655 0.5
w 656 0.5
w 657 0.2366803735229638
w 658 0.5
w 659 0.40569460678509783
w 660 0.5
w 661 0.5
w 662 0.5
w 663 0.5
w 664 0.5
w 665 0.5
w 666 0.5
w 667 0.5
w 668 0.5
w 669 0.5
w 670 0.5
w 671 0.5
w 672 0.5
w 673 0.5
w 674 0.5
w 675 0.5
w 676 0.5
w 677 0.5
w 678 0.5
w 679 0.5
w 680 0.5
w 681 0.5
w 682 0.5
w 683 0.5
w 684 0.5
w 685 0.5
w 686 0.5
w 687 0.5
w 688 0.5
w 689 0.5
w 690 0.5
w 691 0.5
w 692 0.5
w 693 0.5
w 694 0.5
w 695 0.5
w 696 0.5
w 697 0.5
w 698 0.5
w 699 0.5
w 700 0.5
w 701 0.5
w 702 0.5
w 703 0.5
w 704 0.5
w 705 0.5
w 706 0.5
w 707 0.5
w 708 0.5
w 709 0.5
w 710 0.5
w 711 0.5
w 712 0.5
w 713 0.5
w 714 0.5
w 715 0.5
w 716 0.5
w 717 0.5
w 718 0.5
w 719 0.5
w 720 0.5
w 721 0.5
w 722 0.5
w 723 0.5
w 724 0.5
w 725 0.5
w 726 0.5
w 727 0.5
w 728 0.5
w 729 0.5
w 730 0.5
w 731 0.5
w 732 0.5
w 733 0.5
w 734 0.5
w 735 0.5
w 736 0.5
w 737 0.5
w 738 0.5
w 739 0.5
w 740 0.5
w 741 0.5
w 742 0.5
w 743 0.5
w 744 0.5
w 745 0.5
w 746 0.5
w 747 0.5
w 748 0.5
w 749 0.5
w 750 0.5
w 751 0.5
w 752 0.5
w 753 0.5
w 754 0.5
w 755 0.5
w 756 0.5
w 757 0.5
w 758 0.5
w 759 0.5
w 760 0.5
w 761 0.5
w 762 0.5
w 763 0.5
w 764 0.5
w 765 0.5
w 766 0.5
w 767 0.5
w 768 0.5
w 769 0.5
w 770 0.5
w 771 0.5
w 772 0.5
w 773 0.5
w 774 0.5
w 775 0.5
w 776 0.5
w 777 0.5
w 778 0.41002279561348487
w 779 0.6147216923639837
w 780 0.5
w 781 0.5
w 782 0.5
w 783 0.5
w 784 0.5
w 785 0.5
w 786 0.5
w 787 0.5
w 788 0.5
w 789 0.5
w 790 0.5
w 791 0.5
w 792 0.5
w 793 0.5
w 794 0.5
w 795 0.5
w 796 0.5
w 797 0.5
w 798 0.5
w 799 0.5
w 800 0.5
w 801 0.5
w 802 0.5
w 803 0.5
w 804 0.5
w 805 0.5
w 806 0.5
w 807 0.5
w 808 0.5
w 809 0.5
w 810 0.5
w 811 0.6997163049910777
w 812 0.5
w 813 0.5
w 814 0.5
w 815 0.5
w 816 0.5
w 817 0.5
w 818 0.5
w 819 0.5
w 820 0.5
w 821 0.5
w 822 0.5
w 823 0.5
w 824 0.5
w 825 0.5
w 826 0.5
w 827 0.5
w 828 0.5
w 829 0.5
w 830 0.5
w 831 0.5
w 832 0.5
w 833 0.5
w 834 0.5
w 835 0.5
w 836 0.5
w 837 0.5
w 838 0.5
w 839 0.5
w 840 0.5
w 841 0.5
w 842 0.5
w 843 0.5
w 844 0.5
w 845 0.5
w 846 0.5
w 847 0.5
w 848 0.5
w 849 0.5
w 850 0.5
w 851 0.5
w 852 0.5
w 853 0.5
w 854 0.5
w 855 0.5
w 856 0.5
w 857 0.5
w 858 0.5
w 859 0.5
w 860 0.5
w 861 0.5
w 862 0.38414543398327744
w 863 0.5
w 864 0.5
w 865 0.5
w 866 0.5
w 867 0.5
w 868 0.5
w 869 0.5
w 870 0.5
w 871 0.5
w 872 0.5
w 873 0.5
w 874 0.5
w 875 0.5
w 876 0.5
w 877 0.5
w 878 0.5
w 879 0.5
w 880 0.5
w 881 0.5
w 882 0.2273381410699849
w 883 0.5
w 884 0.5
w 885 0.5
w 886 0.5
w 887 0.5
w 888 0.5
w 889 0.5
w 890 0.5
w 891 0.5
w 892 0.5
w 893 0.8106992859552442
w 894 0.5
w 895 0.5
w 896 0.5
w 897 0.5
w 898 0.5
w 899 0.5
w 900 0.5
w 901 0.5
w 902 0.5
w 903 0.5
w 904 0.5
w 905 0.5
w 906 0.5
w 907 0.5
w 908 0.5
w 909 0.5
w 910 0.5
w 911 0.5
w 912 0.5
w 913 0.5
w 914 0.5792951829735943
w 915 0.5
w 916 0.5
w 917 0.5
w 918 0.5
w 919 0.5
w 920 0.5
w 921 0.5
w 922 0.5
w 923 0.5
w 924 0.5
w 925 0.5
w 926 0.7484940872015193
w 927 0.5
w 928 0.5
w 929 0.5
w 930 0.5
w 931 0.5
w 932 0.5
w 933 0.5
w 934 0.5
w 935 0.5
w 936 0.5
w 937 0.5
w 938 0.5
w 939 0.5
w 940 0.5
w 941 0.5
w 942 0.5
w 943 0.5
w 944 0.5
w 945 0.5
w 946 0.5
w 947 0.5
w 948 0.5
w 949 0.5
w 950 0.5
w 951 0.5
w 952 0.5
w 953 0.1746521375361527
w 954 0.5
w 955 0.5
w 956 0.5
w 957 0.5
w 958 0.5
w 959 0.5
w 960 0.5
w 961 0.5
w 962 0.5
w 963 0.5
w 964 0.5
w 965 0.5
w 966 0.5
w 967 0.5
w 968 0.5
w 969 0.5
w 970 0.5
w 971 0.5
w 972 0.5
w 973 0.5
w 974 0.5
w 975 0.5
w 976 0.12632070059382386
w 977 0.5
w 978 0.5
w 979 0.5
w 980 0.5
w 981 0.5
w 982 0.5
w 983 0.5
w 984 0.5
w 985 0.5
w 986 0.5
w 987 0.5
w 988 0.5
w 989 0.5
w 990 0.5
w 991 0.5
w 992 0.5
w 993 0.5
w 994 0.5
w 995 0.5
w 996 0.5
w 997 0.5
w 998 0.5
w 999 0.5
w 1000 0.5
w 1001 0.5
w 1002 0.5
w 1003 0.5
w 1004 0.5
w 1005 0.5
w 1006 0.5
w 1007 0.5
w 1008 0.5
w 1009 0.5
w 1010 0.5
w 1011 0.5
w 1012 0.3417440532781119
w 1013 0.5
w 1014 0.5
w 1015 0.5
w 1016 0.5
w 1017 0.5
w 1018 0.5
w 1019 0.5
w 1020 0.5
w 1021 0.5
w 1022 0.5
w 1023 0.5
w 1024 0.5
w 1025 0.5
w 1026 0.5
w 1027 0.5
w 1028 0.5
w 1029 0.5
w 1030 0.5
w 1031 0.5
w 1032 0.5
w 1033 0.5
w 1034 0.5
w 1035 0.5
w 1036 0.5
w 1037 0.5
w 1038 0.5
w 1039 0.5
w 1040 0.5
w 1041 0.5
w 1042 0.5
w 1043 0.5
w 1044 0.5
w 1045 0.5
w 1046 0.5
w 1047 0.5
w 1048 0.5
w 1049 0.5
w 1050 0.5
w 1051 0.5
w 1052 0.5
w 1053 0.5
w 1054 0.5
w 1055 0.5
w 1056 0.6907509439476452
w 1057 0.5
w 1058 0.5
w 1059 0.5
w 1060 0.5
w 1061 0.5
w 1062 0.5
w 1063 0.5
w 1064 0.5
w 1065 0.5
w 1066 0.5
w 1067 0.5
w 1068 0.5
w 1069 0.5
w 1070 0.5
w 1071 0.5
w 1072 0.5
w 1073 0.5
w 1074 0.5
w 1075 0.5
w 1076 0.5
w 1077 0.5
w 1078 0.5
w 1079 0.5
w 1080 0.5
w 1081 0.5
w 1082 0.5
w 1083 0.5
w 1084 0.5
w 1085 0.5
w 1086 0.5
w 1087 0.5
w 1088 0.5
w 1089 0.8769537380817941
w 1090 0.5
w 1091 0.5
w 1092 0.5
w 1093 0.5
w 1094 0.5
w 1095 0.5
w 1096 0.5
w 1097 0.5
w 1098 0.5
w 1099 0.5
w 1100 0.5
w 1101 0.5
w 1102 0.5
w 1103 0.5
w 1104 0.5
w 1105 0.5
w 1106 0.5
w 1107 0.5
w 1108 0.5
w 1109 0.5
w 1110 0.5
w 1111 0.5
w 1112 0.5
w 1113 0.5
w 1114 0.5
w 1115 0.5
w 1116 0.5
w 1117 0.5
w 1118 0.5
w 1119 0.5
w 1120 0.5
w 1121 0.5
w 1122 0.5
w 1123 0.5
w 1124 0.5
w 1125 0.5
w 1126 0.8726830377190898
w 1127 0.5
w 1128 0.5
w 1129 0.5
w 1130 0.5
w 1131 0.5
w 1132 0.5
w 1133 0.5
w 1134 0.5
w 1135 0.5
w 1136 0.5
w 1137 0.5
w 1138 0.5
w 1139 0.5
w 1140 0.5
w 1141 0.5
w 1142 0.5
w 1143 0.5
w 1144 0.5
w 1145 0.5
w 1146 0.5
w 1147 0.5
w 1148 0.5
w 1149 0.5
w 1150 0.5
w 1151 0.5
w 1152 0.5
w 1153 0.5
w 1154 0.5
w 1155 0.5
w 1156 0.5
w 1157 0.5
w 1158 0.5
w 1159 0.5
w 1160 0.5
w 1161 0.5
w 1162 0.5
w 1163 0.5
w 1164 0.5
w 1165 0.5
w 1166 0.5
w 1167 0.5
w 1168 0.5
w 1169 0.5
w 1170 0.5
w 1171 0.5
w 1172 0.5
w 1173 0.5
w 1174 0.5
w 1175 0.5
w 1176 0.5
w 1177 0.5
w 1178 0.5
w 1179 0.5
w 1180 0.5
w 1181 0.5
w 1182 0.5
w 1183 0.5
w 1184 0.5
w 1185 0.5
w 1186 0.5
w 1187 0.5
w 1188 0.5
w 1189 0.5
w 1190 0.5
w 1191 0.5
w 1192 0.5
w 1193 0.5
w 1194 0.5
w 1195 0.5
w 1196 0.5
w 1197 0.5
w 1198 0.5
w 1199 0.5
w 1200 0.3737820610537157
w 1201 0.5
w 1202 0.5
w 1203 0.5
w 1204 0.5
w 1205 0.5
w 1206 0.5
w 1207 0.5
w 1208 0.5
w 1209 0.5
w 1210 0.5
w 1211 0.5
w 1212 0.5
w 1213 0.5
w 1214 0.8793209544610167
w 1215 0.5
w 1216 0.5
w 1217 0.5
w 1218 0.5
w 1219 0.5
w 1220 0.5
w 1221 0.5
w 1222 0.5
w 1223 0.5
w 1224 0.5
w 1225 0.5
w 1226 0.5
w 1227 0.22725257574254584
w 1228 0.5
w 1229 0.5
w 1230 0.7077876063879838
w 1231 0.5
w 1232 0.6514346212422896
w 1233 0.5
w 1234 0.5
w 1235 0.5
w 1236 0.5
w 1237 0.5
w 1238 0.5
w 1239 0.5
w 1240 0.5
w 1241 0.5
w 1242 0.5
w 1243 0.5
w 1244 0.5
w 1245 0.5
w 1246 0.5
w 1247 0.5
w 1248 0.5
w 1249 0.5
w 1250 0.5
w 1251 0.5
w 1252 0.5
w 1253 0.5
w 1254 0.5
w 1255 0.5
w 1256 0.5
w 1257 0.5
w 1258 0.5
w 1259 0.5
w 1260 0.5
w 1261 0.5
w 1262 0.5
w 1263 0.5
w 1264 0.5
w 1265 0.5
w 1266 0.5
w 1267 0.5
w 1268 0.5
w 1269 0.5
w 1270 0.5
w 1271 0.5
w 1272 0.5
w 1273 0.5
w 1274 0.5
w 1275 0.5
w 1276 0.5
w 1277 0.5
w 1278 0.5
w 1279 0.5
w 1280 0.5
w 1281 0.5
w 1282 0.5
w 1283 0.5
w 1284 0.5
w 1285 0.5
w 1286 0.5
w 1287 0.5
w 1288 0.5
w 1289 0.5
w 1290 0.5
w 1291 0.5
w 1292 0.5
w 1293 0.5
w 1294 0.5
w 1295 0.5
w 1296 0.5
w 1297 0.5
w 1298 0.5
w 1299 0.5
w 1300 0.5
w 1301 0.5
w 1302 0.5
w 1303 0.6601201358313663
w 1304 0.5
w 1305 0.5
w 1306 0.5
w 1307 0.5
w 1308 0.5
w 1309 0.5
w 1310 0.5
w 1311 0.5
w 1312 0.5
w 1313 0.5
w 1314 0.5
w 1315 0.5
w 1316 0.5
w 1317 0.5
w 1318 0.5
w 1319 0.5
w 1320 0.5
w 1321 0.5
w 1322 0.5
w 1323 0.5
w 1324 0.5
w 1325 0.5
w 1326 0.5
w 1327 0.5
w 1328 0.5
w 1329 0.552535937387155
w 1330 0.5
w 1331 0.35526997059236876
w 1332 0.5
w 1333 0.5
w 1334 0.5
w 1335 0.5
w 1336 0.5
w 1337 0.5
w 1338 0.5
w 1339 0.5
w 1340 0.5
w 1341 0.5
w 1342 0.550599704848238
w 1343 0.5
w 1344 0.5
w 1345 0.5
w 1346 0.5
w 1347 0.5
w 1348 0.5
w 1349 0.5
w 1350 0.5
w 1351 0.5
w 1352 0.5
w 1353 0.5
w 1354 0.5
w 1355 0.5
w 1356 0.5
w 1357 0.5
w 1358 0.5
w 1359 0.5
w 1360 0.5
w 1361 0.5
w 1362 0.5
w 1363 0.5
w 1364 0.5
w 1365 0.5
w 1366 0.5
w 1367 0.5
w 1368 0.5
w 1369 0.5
w 1370 0.5
w 1371 0.5
w 1372 0.1498779073774855
w 1373 0.5
w 1374 0.5
w 1375 0.5
w 1376 0.5
w 1377 0.5
w 1378 0.5
w 1379 0.5
w 1380 0.5
w 1381 0.5
w 1382 0.5
w 1383 0.5
w 1384 0.5
w 1385 0.5
w 1386 0.5
w 1387 0.5
w 1388 0.5
w 1389 0.5
w 1390 0.5
w 1391 0.5
w 1392 0.5
w 1393 0.5
w 1394 0.5
w 1395 0.5
w 1396 0.5
w 1397 0.5
w 1398 0.5
w 1399 0.5
w 1400 0.5
w 1401 0.5
w 1402 0.5
w 1403 0.5
w 1404 0.5
w 1405 0.3771712875822293
w 1406 0.5
w 1407 0.5
w 1408 0.5
w 1409 0.5
w 1410 0.5
w 1411 0.5
w 1412 0.5
w 1413 0.5
w 1414 0.5
w 1415 0.5
w 1416 0.5
w 1417 0.5
w 1418 0.5
w 1419 0.7509627180952648
w 1420 0.5
w 1421 0.5
w 1422 0.5
w 1423 0.5
w 1424 0.806841649490648
w 1425 0.5
w 1426 0.6243040854920228
w 1427 0.5
w 1428 0.5
w 1429 0.5
w 1430 0.5
w 1431 0.5
w 1432 0.5
w 1433 0.5
w 1434 0.5
w 1435 0.5
w 1436 0.5
w 1437 0.5
w 1438 0.5
w 1439 0.5
w 1440 0.5
w 1441 0.5
w 1442 0.5
w 1443 0.5
w 1444 0.5
w 1445 0.5
w 1446 0.5
w 1447 0.5
w 1448 0.5
w 1449 0.5
w 1450 0.5
w 1451 0.5
w 1452 0.5
w 1453 0.5
w 1454 0.5
w 1455 0.5
w 1456 0.5
w 1457 0.5
w 1458 0.5
w 1459 0.5
w 1460 0.5
w 1461 0.5
w 1462 0.5
w 1463 0.5
w 1464 0.5
w 1465 0.5
w 1466 0.5
w 1467 0.5
w 1468 0.5
w 1469 0.5
w 1470 0.5
w 1471 0.5
w 1472 0.5
w 1473 0.5
w 1474 0.5
w 1475 0.5
w 1476 0.5
w 1477 0.5
w 1478 0.5
w 1479 0.5
w 1480 0.5
w 1481 0.5
w 1482 0.5
w 1483 0.5
w 1484 0.5
w 1485 0.5
w 1486 0.5
w 1487 0.5
w 1488 0.5
w 1489 0.5
w 1490 0.5
w 1491 0.5
w 1492 0.5
w 1493 0.5
w 1494 0.5808644985506788
w 1495 0.5
w 1496 0.5
w 1497 0.5
w 1498 0.5
w 1499 0.5
w 1500 0.5
w 1501 0.5
w 1502 0.5
w 1503 0.5
w 1504 0.5
w 1505 0.5
w 1506 0.5
w 1507 0.5
w 1508 0.5
w 1509 0.5
w 1510 0.5
w 1511 0.5
w 1512 0.5
w 1513 0.5
w 1514 0.5
w 1515 0.5
w 1516 0.5
w 1517 0.5
w 1518 0.5
w 1519 0.5
w 1520 0.5
w 1521 0.5
w 1522 0.5
w 1523 0.5
w 1524 0.5
w 1525 0.5
w 1526 0.5
w 1527 0.5
w 1528 0.5
w 1529 0.5
w 1530 0.5
w 1531 0.5
w 1532 0.5
w 1533 0.5
w 1534 0.5
w 1535 0.5
w 1536 0.5
w 1537 0.5
w 1538 0.5
w 1539 0.5
w 1540 0.5
w 1541 0.5
w 1542 0.5
w 1543 0.5
w 1544 0.5
w 1545 0.5
w 1546 0.5
w 1547 0.5
w 1548 0.5
w 1549 0.5
w 1550 0.5
w 1551 0.5
w 1552 0.5
w 1553 0.5
w 1554 0.5
w 1555 0.5
w 1556 0.5
w 1557 0.5
w 1558 0.5
w 1559 0.5
w 1560 0.5
w 1561 0.5
w 1562 0.5
w 1563 0.5
w 1564 0.5
w 1565 0.5
w 1566 0.5
w 1567 0.5
w 1568 0.5
w 1569 0.5
w 1570 0.5
w 1571 0.5
w 1572 0.5
w 1573 0.5
w 1574 0.5
w 1575 0.5
w 1576 0.5
w 1577 0.5
w 1578 0.5
w 1579 0.5
w 1580 0.5
w 1581 0.5
w 1582 0.5
w 1583 0.5
w 1584 0.5
w 1585 0.5
w 1586 0.5
w 1587 0.5
w 1588 0.5
w 1589 0.5
w 1590 0.5
w 1591 0.5
w 1592 0.5
w 1593 0.5
w 1594 0.5
w 1595 0.5
w 1596 0.5
w 1597 0.3299708757197677
w 1598 0.5
w 1599 0.5
w 1600 0.5
w 1601 0.5
w 1602 0.5
w 1603 0.5
w 1604 0.5
w 1605 0.5
w 1606 0.7147612018335052
w 1607 0.5
w 1608 0.5
w 1609 0.5
w 1610 0.5
w 1611 0.5
w 1612 0.18740594135929328
w 1613 0.5
w 1614 0.5
w 1615 0.5
w 1616 0.5
w 1617 0.5
w 1618 0.5
w 1619 0.5
w 1620 0.5
w 1621 0.5
w 1622 0.5
w 1623 0.5
w 1624 0.5
w 1625 0.5
w 1626 0.5
w 1627 0.5
w 1628 0.5
w 1629 0.5
w 1630 0.5
w 1631 0.5
w 1632 0.5
w 1633 0.5
w 1634 0.5
w 1635 0.5
w 1636 0.5
w 1637 0.5
w 1638 0.5
w 1639 0.5
w 1640 0.5
w 1641 0.5
w 1642 0.5
w 1643 0.5
w 1644 0.5
w 1645 0.5
w 1646 0.5
w 1647 0.2840330683299745
w 1648 0.5
w 1649 0.5
w 1650 0.5
w 1651 0.5
w 1652 0.5
w 1653 0.5
w 1654 0.5
w 1655 0.20643864072552173
w 1656 0.5
w 1657 0.5
w 1658 0.5
w 1659 0.5
w 1660 0.5
w 1661 0.5
w 1662 0.5
w 1663 0.5
w 1664 0.5
w 1665 0.5
w 1666 0.5
w 1667 0.5
w 1668 0.5
w 1669 0.5
w 1670 0.5
w 1671 0.5
w 1672 0.5
w 1673 0.5
w 1674 0.5
w 1675 0.5
w 1676 0.5
w 1677 0.5
w 1678 0.5
w 1679 0.5
w 1680 0.5
w 1681 0.5
w 1682 0.5
w 1683 0.5
w 1684 0.5
w 1685 0.5
w 1686 0.5
w 1687 0.5
w 1688 0.5
w 1689 0.5
w 1690 0.5
w 1691 0.5
w 1692 0.5
w 1693 0.5
w 1694 0.5
w 1695 0.5
w 1696 0.5
w 1697 0.5
w 1698 0.5
w 1699 0.5
w 1700 0.5
w 1701 0.5
w 1702 0.5
w 1703 0.5
w 1704 0.5
w 1705 0.5
w 1706 0.5
w 1707 0.5
w 1708 0.5
w 1709 0.5
w 1710 0.5
w 1711 0.5
w 1712 0.5
w 1713 0.5
w 1714 0.5
w 1715 0.5
w 1716 0.5
w 1717 0.5
w 1718 0.5
w 1719 0.5
w 1720 0.5
w 1721 0.5
w 1722 0.5
w 1723 0.5
w 1724 0.5
w 1725 0.5
w 1726 0.5
w 1727 0.5
w 1728 0.5
w 1729 0.5
w 1730 0.5
w 1731 0.5
w 1732 0.5
w 1733 0.5
w 1734 0.5
w 1735 0.5
w 1736 0.5
w 1737 0.5
w 1738 0.5
w 1739 0.5
w 1740 0.5
w 1741 0.7372654911778262
w 1742 0.5
w 1743 0.5
w 1744 0.5
w 1745 0.5
w 1746 0.5
w 1747 0.5
w 1748 0.5
w 1749 0.5
w 1750 0.5
w 1751 0.5
w 1752 0.5
w 1753 0.5
w 1754 0.5
w 1755 0.5
w 1756 0.5
w 1757 0.5
w 1758 0.5
w 1759 0.5
w 1760 0.5
w 1761 0.5
w 1762 0.5
w 1763 0.5
w 1764 0.5
w 1765 0.5
w 1766 0.5
w 1767 0.5
w 1768 0.5
w 1769 0.5
w 1770 0.5
w 1771 0.5
w 1772 0.5
w 1773 0.5
w 1774 0.5
w 1775 0.5
w 1776 0.5
w 1777 0.5
w 1778 0.5
w 1779 0.5
w 1780 0.5
w 1781 0.5
w 1782 0.5
w 1783 0.5
w 1784 0.5
w 1785 0.5
w 1786 0.5
w 1787 0.5
w 1788 0.5
w 1789 0.5
w 1790 0.5
w 1791 0.5
w 1792 0.5
w 1793 0.5
w 1794 0.5
w 1795 0.5
w 1796 0.5
w 1797 0.5
w 1798 0.5
w 1799 0.5
w 1800 0.5
w 1801 0.5
w 1802 0.5
w 1803 0.5
w 1804 0.5
w 1805 0.5
w 1806 0.5
w 1807 0.5
w 1808 0.5
w 1809 0.20583338856189437
w 1810 0.5
w 1811 0.5
w 1812 0.5
w 1813 0.5
w 1814 0.5
w 1815 0.5
w 1816 0.5
w 1817 0.5
w 1818 0.5
w 1819 0.5
w 1820 0.5
w 1821 0.5
w 1822 0.6022550077089349
w 1823 0.5
w 1824 0.5
w 1825 0.5
w 1826 0.5
w 1827 0.5
w 1828 0.5
w 1829 0.5
w 1830 0.5
w 1831 0.5
w 1832 0.5
w 1833 0.5
w 1834 0.5
w 1835 0.5
w 1836 0.5
w 1837 0.5
w 1838 0.5
w 1839 0.5
w 1840 0.5
w 1841 0.5
w 1842 0.5
w 1843 0.5
w 1844 0.5
w 1845 0.5
w 1846 0.5
w 1847 0.5
w 1848 0.5
w 1849 0.5
w 1850 0.5
w 1851 0.5
w 1852 0.5
w 1853 0.5
w 1854 0.5
w 1855 0.5
w 1856 0.5
w 1857 0.5
w 1858 0.5
w 1859 0.5
w 1860 0.5
w 1861 0.5
w 1862 0.5
w 1863 0.5
w 1864 0.5
w 1865 0.716442766676125
w 1866 0.5
w 1867 0.5
w 1868 0.5
w 1869 0.5
w 1870 0.5
w 1871 0.5
w 1872 0.5
w 1873 0.5
w 1874 0.5
w 1875 0.5
w 1876 0.5
w 1877 0.5
w 1878 0.5
w 1879 0.5
w 1880 0.5
w 1881 0.5
w 1882 0.5
w 1883 0.5
w 1884 0.5
w 1885 0.5
w 1886 0.5
w 1887 0.5
w 1888 0.5
w 1889 0.5
w 1890 0.5
w 1891 0.5
w 1892 0.5
w 1893 0.5
w 1894 0.5
w 1895 0.5
w 1896 0.5
w 1897 0.5
w 1898 0.5
w 1899 0.5
w 1900 0.5
w 1901 0.5
w 1902 0.5
w 1903 0.5
w 1904 0.5
w 1905 0.5
w 1906 0.5
w 1907 0.5
w 1908 0.5
w 1909 0.5
w 1910 0.5
w 1911 0.5
w 1912 0.5
w 1913 0.5
w 1914 0.5
w 1915 0.5
w 1916 0.5
w 1917 0.5
w 1918 0.5
w 1919 0.5
w 1920 0.5
w 1921 0.5
w 1922 0.5
w 1923 0.5
w 1924 0.5
w 1925 0.5
w 1926 0.5
w 1927 0.5
w 1928 0.5
w 1929 0.5
w 1930 0.5
w 1931 0.5
w 1932 0.5
w 1933 0.5
w 1934 0.5
w 1935 0.5
w 1936 0.5
w 1937 0.5
w 1938 0.5
w 1939 0.5
w 1940 0.5
w 1941 0.5
w 1942 0.5
w 1943 0.5
w 1944 0.5
w 1945 0.5
w 1946 0.5
w 1947 0.5
w 1948 0.5
w 1949 0.5
w 1950 0.5
w 1951 0.5
w 1952 0.5
w 1953 0.5
w 1954 0.5
w 1955 0.5
w 1956 0.5
w 1957 0.5
w 1958 0.5726134308068651
w 1959 0.5
w 1960 0.5
w 1961 0.5
w 1962 0.5
w 1963 0.5
w 1964 0.5
w 1965 0.5
w 1966 0.5
w 1967 0.5
w 1968 0.5
w 1969 0.1337325795996594
w 1970 0.5
w 1971 0.5
w 1972 0.5
w 1973 0.5
w 1974 0.5
w 1975 0.5
w 1976 0.5
w 1977 0.5
w 1978 0.5
w 1979 0.5
w 1980 0.5
w 1981 0.30385907176761473
w 1982 0.5
w 1983 0.5
w 1984 0.5
w 1985 0.5
w 1986 0.5
w 1987 0.5
w 1988 0.5
w 1989 0.5
w 1990 0.5
w 1991 0.5
w 1992 0.5
w 1993 0.5
w 1994 0.5
w 1995 0.5
w 1996 0.5
w 1997 0.5
w 1998 0.5
w 1999 0.5
w 2000 0.5
w 2001 0.5
w 2002 0.5
w 2003 0.5
w 2004 0.5
w 2005 0.5
w 2006 0.5
w 2007 0.5
w 2008 0.5
w 2009 0.5
w 2010 0.5
w 2011 0.5
w 2012 0.5
w 2013 0.5
w 2014 0.5
w 2015 0.5
w 2016 0.5
w 2017 0.5
w 2018 0.5
w 2019 0.5
w 2020 0.5
w 2021 0.5
w 2022 0.2479904656818814
w 2023 0.5
w 2024 0.5
w 2025 0.5
w 2026 0.5
w 2027 0.5
w 2028 0.5
w 2029 0.5
w 2030 0.5
w 2031 0.5
w 2032 0.5
w 2033 0.5
w 2034 0.5
w 2035 0.5
w 2036 0.5
w 2037 0.5
w 2038 0.5
w 2039 0.5
w 2040 0.5
w 2041 0.5
w 2042 0.5
w 2043 0.5
w 2044 0.5
w 2045 0.5
w 2046 0.5
w 2047 0.5
w 2048 0.5
w 2049 0.5
w 2050 0.5
w 2051 0.5
w 2052 0.5
w 2053 0.5
w 2054 0.5
w 2055 0.5
w 2056 0.5
w 2057 0.5
w 2058 0.5
w 2059 0.5
w 2060 0.5
w 2061 0.5
w 2062 0.5
w 2063 0.5
w 2064 0.5
w 2065 0.5
w 2066 0.5
w 2067 0.5
w 2068 0.5
w 2069 0.5
w 2070 0.5
w 2071 0.5
w 2072 0.5
w 2073 0.5
w 2074 0.5
w 2075 0.5
w 2076 0.5
w 2077 0.5
w 2078 0.5
w 2079 0.5
w 2080 0.5
w 2081 0.5
w 2082 0.5
w 2083 0.5
w 2084 0.5
w 2085 0.5
w 2086 0.5
w 2087 0.5
w 2088 0.5
w 2089 0.5
w 2090 0.5
w 2091 0.5
w 2092 0.5
w 2093 0.5
w 2094 0.5
w 2095 0.5
w 2096 0.5
w 2097 0.5
w 2098 0.5
w 2099 0.5
w 2100 0.5
w 2101 0.5
w 2102 0.5
w 2103 0.6601086764935576
w 2104 0.5
w 2105 0.5
w 2106 0.5
w 2107 0.7053456642315108
w 2108 0.7410136953993657
w 2109 0.5
w 2110 0.5
w 2111 0.5
w 2112 0.5
w 2113 0.5
w 2114 0.5
w 2115 0.5
w 2116 0.5
w 2117 0.5
w 2118 0.5
w 2119 0.5
w 2120 0.5
w 2121 0.5
w 2122 0.5
w 2123 0.5
w 2124 0.5
w 2125 0.5
w 2126 0.5
w 2127 0.5
w 2128 0.5
w 2129 0.5
w 2130 0.5
w 2131 0.5
w 2132 0.5
w 2133 0.5
w 2134 0.5
w 2135 0.5
w 2136 0.5
w 2137 0.5
w 2138 0.5
w 2139 0.5
w 2140 0.5
w 2141 0.5
w 2142 0.5
w 2143 0.5
w 2144 0.5
w 2145 0.5
w 2146 0.5
w 2147 0.5
w 2148 0.5
w 2149 0.5
w 2150 0.5
w 2151 0.5
w 2152 0.5
w 2153 0.2612114696399467
w 2154 0.5
w 2155 0.5
w 2156 0.5
w 2157 0.5
w 2158 0.5
w 2159 0.5
w 2160 0.5
w 2161 0.5
w 2162 0.5
w 2163 0.5
w 2164 0.5
w 2165 0.5
w 2166 0.5
w 2167 0.5
w 2168 0.5
w 2169 0.5
w 2170 0.5
w 2171 0.5
w 2172 0.5
w 2173 0.5
w 2174 0.5
w 2175 0.5
w 2176 0.5
w 2177 0.5
w 2178 0.5
w 2179 0.5
w 2180 0.5
w 2181 0.5
w 2182 0.5
w 2183 0.5
w 2184 0.5
w 2185 0.5
w 2186 0.5
w 2187 0.4830149513592207
w 2188 0.5
w 2189 0.5
w 2190 0.5
w 2191 0.5
w 2192 0.5
w 2193 0.5
w 2194 0.5
w 2195 0.5
w 2196 0.5
w 2197 0.5
w 2198 0.5
w 2199 0.5
w 2200 0.5
w 2201 0.5
w 2202 0.5
w 2203 0.5
w 2204 0.5
w 2205 0.5
w 2206 0.5
w 2207 0.5
w 2208 0.5
w 2209 0.5
w 2210 0.5
w 2211 0.5
w 2212 0.5
w 2213 0.5
w 2214 0.5
w 2215 0.5
w 2216 0.5
w 2217 0.5
w 2218 0.5
w 2219 0.5
w 2220 0.5
w 2221 0.5
w 2222 0.5
w 2223 0.5
w 2224 0.5
w 2225 0.5
w 2226 0.5
w 2227 0.5
w 2228 0.5
w 2229 0.5
w 2230 0.5
w 2231 0.5
w 2232 0.5
w 2233 0.5
w 2234 0.5
w 2235 0.5
w 2236 0.5
w 2237 0.5
w 2238 0.5
w 2239 0.5
w 2240 0.7061750749449267
w 2241 0.5
w 2242 0.5
w 2243 0.5
w 2244 0.5
w 2245 0.5
w 2246 0.5
w 2247 0.5
w 2248 0.5
w 2249 0.5
w 2250 0.5
w 2251 0.5
w 2252 0.5
w 2253 0.5
w 2254 0.5
w 2255 0.5
w 2256 0.5
w 2257 0.5
w 2258 0.5
w 2259 0.5
w 2260 0.5
w 2261 0.5
w 2262 0.5
w 2263 0.5
w 2264 0.5
w 2265 0.5
w 2266 0.5
w 2267 0.5
w 2268 0.5
w 2269 0.5
w 2270 0.5
w 2271 0.5
w 2272 0.5
w 2273 0.5
w 2274 0.5
w 2275 0.5
w 2276 0.5
w 2277 0.5
w 2278 0.5
w 2279 0.5
w 2280 0.5
w 2281 0.5
w 2282 0.5
w 2283 0.5
w 2284 0.5
w 2285 0.7842868166765031
w 2286 0.5
w 2287 0.5
w 2288 0.5
w 2289 0.5
w 2290 0.5
w 2291 0.5
w 2292 0.5
w 2293 0.5
w 2294 0.5
w 2295 0.5
w 2296 0.5
w 2297 0.5
w 2298 0.5
w 2299 0.5
w 2300 0.5
w 2301 0.5
w 2302 0.5
w 2303 0.5
w 2304 0.5
w 2305 0.5
w 2306 0.5
w 2307 0.5
w 2308 0.5
w 2309 0.5
w 2310 0.5
w 2311 0.5
w 2312 0.5
w 2313 0.5
w 2314 0.8263508160830048
w 2315 0.5
w 2316 0.5
w 2317 0.5
w 2318 0.5
w 2319 0.5
w 2320 0.5
w 2321 0.5
w 2322 0.5
w 2323 0.5
w 2324 0.5
w 2325 0.5
w 2326 0.5
w 2327 0.5
w 2328 0.5
w 2329 0.5
w 2330 0.5
w 2331 0.5
w 2332 0.5
w 2333 0.5
w 2334 0.5
w 2335 0.5
w 2336 0.5
w 2337 0.5
w 2338 0.5
w 2339 0.5
w 2340 0.5
w 2341 0.5
w 2342 0.5
w 2343 0.5
w 2344 0.5
w 2345 0.5
w 2346 0.5
w 2347 0.5
w 2348 0.5
w 2349 0.5
w 2350 0.5
w 2351 0.5
w 2352 0.5
w 2353 0.5
w 2354 0.5
w 2355 0.5
w 2356 0.5
w 2357 0.5
w 2358 0.5
w 2359 0.8366152953321924
w 2360 0.5
w 2361 0.4154061986026377
w 2362 0.5
w 2363 0.5
w 2364 0.5
w 2365 0.5
w 2366 0.5
w 2367 0.5
w 2368 0.5
w 2369 0.5
w 2370 0.5
w 2371 0.5
w 2372 0.5
w 2373 0.5
w 2374 0.5
w 2375 0.5
w 2376 0.5
w 2377 0.5
w 2378 0.5
w 2379 0.5
w 2380 0.5
w 2381 0.5
w 2382 0.5
w 2383 0.5
w 2384 0.5
w 2385 0.5
w 2386 0.5
w 2387 0.5
w 2388 0.5
w 2389 0.5
w 2390 0.5
w 2391 0.5
w 2392 0.5
w 2393 0.5
w 2394 0.5
w 2395 0.5
w 2396 0.5
w 2397 0.5
w 2398 0.5
w 2399 0.5
w 2400 0.5
w 2401 0.5
w 2402 0.5
w 2403 0.5
w 2404 0.5
w 2405 0.5
w 2406 0.5
w 2407 0.5
w 2408 0.5
w 2409 0.5
w 2410 0.5
w 2411 0.5
w 2412 0.5
w 2413 0.5
w 2414 0.5
w 2415 0.5
w 2416 0.5
w 2417 0.5
w 2418 0.5
w 2419 0.5
w 2420 0.5
w 2421 0.5
w 2422 0.5
w 2423 0.5
w 2424 0.5
w 2425 0.5
w 2426 0.5
w 2427 0.5
w 2428 0.5
w 2429 0.5
w 2430 0.5
w 2431 0.5
w 2432 0.5
w 2433 0.5
w 2434 0.5
w 2435 0.5
w 2436 0.5
w 2437 0.5
-976 -442 -1247 0
-976 -442 -2362 0
-976 -442 -1434 0
-976 -442 -304 0
-976 -442 2234 -2362 0
-976 -442 -2234 2362 0
-976 -442 623 -304 0
-976 -442 -623 304 0
-976 -442 1412 -1247 0
-976 -442 -1412 1247 0
-976 -442 1671 -1434 0
-976 -442 -1671 1434 0
-976 442 1769 0
-976 442 952 0
-976 442 1491 0
-976 442 1915 0
-976 442 2234 -952 0
-976 442 -2234 952 0
-976 442 623 -1915 0
-976 442 -623 1915 0
-976 442 1412 -1769 0
-976 442 -1412 1769 0
-976 442 1671 -1491 0
-976 442 -1671 1491 0
-976 1321 0
-976 182 -2234 0
-976 -182 2234 0
-976 1059 -623 0
-976 -1059 623 0
-976 2199 -1412 0
-976 -2199 1412 0
-976 1254 -1671 0
-976 -1254 1671 0
976 -2356 -1976 0
976 -2356 -1479 0
976 -2356 102 0
976 -2356 332 0
976 -2356 627 -1479 0
976 -2356 -627 1479 0
976 -2356 423 -332 0
976 -2356 -423 332 0
976 -2356 153 -1976 0
976 -2356 -153 1976 0
976 -2356 982 -102 0
976 -2356 -982 102 0
976 2356 1691 0
976 2356 2034 0
976 2356 -144 0
976 2356 -367 0
976 2356 627 -2034 0
976 2356 -627 2034 0
976 2356 423 -367 0
976 2356 -423 367 0
976 2356 153 -1691 0
976 2356 -153 1691 0
976 2356 982 -144 0
976 2356 -982 144 0
976 1717 0
976 182 -627 0
976 -182 627 0
976 1059 -423 0
976 -1059 423 0
976 2199 -153 0
976 -2199 153 0
976 1254 -982 0
976 -1254 982 0
-1424 -1800 -1875 0
-1424 -1800 -1599 0
-1424 -1800 -2125 0
-1424 -1800 -1086 0
-1424 -1800 73 -1599 0
-1424 -1800 -73 1599 0
-1424 -1800 1933 -1086 0
-1424 -1800 -1933 1086 0
-1424 -1800 146 -1875 0
-1424 -1800 -146 1875 0
-1424 -1800 2278 -2125 0
-1424 -1800 -2278 2125 0
-1424 1800 2053 0
-1424 1800 1054 0
-1424 1800 949 0
-1424 1800 1796 0
-1424 1800 73 -1054 0
-1424 1800 -73 1054 0
-1424 1800 1933 -1796 0
-1424 1800 -1933 1796 0
-1424 1800 146 -2053 0
-1424 1800 -146 2053 0
-1424 1800 2278 -949 0
-1424 1800 -2278 949 0
-1424 1764 0
-1424 597 -73 0
-1424 -597 73 0
-1424 944 -1933 0
-1424 -944 1933 0
-1424 182 -146 0
-1424 -182 146 0
-1424 904 -2278 0
-1424 -904 2278 0
1424 -849 -2358 0
1424 -849 -1869 0
1424 -849 2390 0
1424 -849 2350 0
1424 -849 2168 -1869 0
1424 -849 -2168 1869 0
1424 -849 867 -2350 0
1424 -849 -867 2350 0
1424 -849 2280 -2358 0
1424 -849 -2280 2358 0
1424 -849 1077 -2390 0
1424 -849 -1077 2390 0
1424 849 99 0
1424 849 1864 0
1424 849 -216 0
1424 849 -353 0
1424 849 2168 -1864 0
1424 849 -2168 1864 0
1424 849 867 -353 0
1424 849 -867 353 0
1424 849 2280 -99 0
1424 849 -2280 99 0
1424 849 1077 -216 0
1424 849 -1077 216 0
1424 1737 0
1424 597 -2168 0
1424 -597 2168 0
1424 944 -867 0
1424 -944 867 0
1424 182 -2280 0
1424 -182 2280 0
1424 904 -1077 0
1424 -904 1077 0
-1606 -1842 -31 0
-1606 -1842 -955 0
-1606 -1842 -2146 0
-1606 -1842 -1851 0
-1606 -1842 2152 -955 0
-1606 -1842 -2152 955 0
-1606 -1842 810 -1851 0
-1606 -1842 -810 1851 0
-1606 -1842 948 -31 0
-1606 -1842 -948 31 0
-1606 -1842 1473 -2146 0
-1606 -1842 -1473 2146 0
-1606 1842 2291 0
-1606 1842 1486 0
-1606 1842 1701 0
-1606 1842 1540 0
-1606 1842 2152 -1486 0
-1606 1842 -2152 1486 0
-1606 1842 810 -1540 0
-1606 1842 -810 1540 0
-1606 1842 948 -2291 0
-1606 1842 -948 2291 0
-1606 1842 1473 -1701 0
-1606 1842 -1473 1701 0
-1606 736 0
-1606 348 -2152 0
-1606 -348 2152 0
-1606 478 -810 0
-1606 -478 810 0
-1606 597 -948 0
-1606 -597 948 0
-1606 1445 -1473 0
-1606 -1445 1473 0
1606 -330 -2355 0
1606 -330 -441 0
1606 -330 1183 0
1606 -330 632 0
1606 -330 2301 -441 0
1606 -330 -2301 441 0
1606 -330 2425 -632 0
1606 -330 -2425 632 0
1606 -330 1974 -2355 0
1606 -330 -1974 2355 0
1606 -330 1652 -1183 0
1606 -330 -1652 1183 0
1606 330 1987 0
1606 330 705 0
1606 330 -1533 0
1606 330 -2313 0
1606 330 2301 -705 0
1606 330 -2301 705 0
1606 330 2425 -2313 0
1606 330 -2425 2313 0
1606 330 1974 -1987 0
1606 330 -1974 1987 0
1606 330 1652 -1533 0
1606 330 -1652 1533 0
1606 2191 0
1606 348 -2301 0
1606 -348 2301 0
1606 478 -2425 0
1606 -478 2425 0
1606 597 -1974 0
1606 -597 1974 0
1606 1445 -1652 0
1606 -1445 1652 0
-427 -555 -1850 0
-427 -555 -1103 0
-427 -555 -261 0
-427 -555 -766 0
-427 -555 82 -1103 0
-427 -555 -82 1103 0
-427 -555 837 -766 0
-427 -555 -837 766 0
-427 -555 1714 -1850 0
-427 -555 -1714 1850 0
-427 -555 752 -261 0
-427 -555 -752 261 0
-427 555 715 0
-427 555 1776 0
-427 555 335 0
-427 555 1594 0
-427 555 82 -1776 0
-427 555 -82 1776 0
-427 555 837 -1594 0
-427 555 -837 1594 0
-427 555 1714 -715 0
-427 555 -1714 715 0
-427 555 752 -335 0
-427 555 -752 335 0
-427 2397 0
-427 2428 -82 0
-427 -2428 82 0
-427 1878 -837 0
-427 -1878 837 0
-427 348 -1714 0
-427 -348 1714 0
-427 2147 -752 0
-427 -2147 752 0
427 -2195 -222 0
427 -2195 -1503 0
427 -2195 195 0
427 -2195 382 0
427 -2195 1739 -1503 0
427 -2195 -1739 1503 0
427 -2195 1341 -382 0
427 -2195 -1341 382 0
427 -2195 937 -222 0
427 -2195 -937 222 0
427 -2195 2002 -195 0
427 -2195 -2002 195 0
427 2195 457 0
427 2195 1087 0
427 2195 -921 0
427 2195 -2386 0
427 2195 1739 -1087 0
427 2195 -1739 1087 0
427 2195 1341 -2386 0
427 2195 -1341 2386 0
427 2195 937 -457 0
427 2195 -937 457 0
427 2195 2002 -921 0
427 2195 -2002 921 0
427 649 0
427 2428 -1739 0
427 -2428 1739 0
427 1878 -1341 0
427 -1878 1341 0
427 348 -937 0
427 -348 937 0
427 2147 -2002 0
427 -2147 2002 0
-1012 -1587 -885 0
-1012 -1587 -1573 0
-1012 -1587 -1506 0
-1012 -1587 -2016 0
-1012 -1587 486 -1573 0
-1012 -1587 -486 1573 0
-1012 -1587 792 -2016 0
-1012 -1587 -792 2016 0
-1012 -1587 252 -885 0
-1012 -1587 -252 885 0
-1012 -1587 1984 -1506 0
-1012 -1587 -1984 1506 0
-1012 1587 328 0
-1012 1587 155 0
-1012 1587 81 0
-1012 1587 514 0
-1012 1587 486 -155 0
-1012 1587 -486 155 0
-1012 1587 792 -514 0
-1012 1587 -792 514 0
-1012 1587 252 -328 0
-1012 1587 -252 328 0
-1012 1587 1984 -81 0
-1012 1587 -1984 81 0
-1012 742 0
-1012 393 -486 0
-1012 -393 486 0
-1012 869 -792 0
-1012 -869 792 0
-1012 2428 -252 0
-1012 -2428 252 0
-1012 1715 -1984 0
-1012 -1715 1984 0
1012 -1545 -1092 0
1012 -1545 -674 0
1012 -1545 1887 0
1012 -1545 764 0
1012 -1545 1404 -674 0
1012 -1545 -1404 674 0
1012 -1545 191 -764 0
1012 -1545 -191 764 0
1012 -1545 363 -1092 0
1012 -1545 -363 1092 0
1012 -1545 601 -1887 0
1012 -1545 -601 1887 0
1012 1545 1448 0
1012 1545 1946 0
1012 1545 -2293 0
1012 1545 -1829 0
1012 1545 1404 -1946 0
1012 1545 -1404 1946 0
1012 1545 191 -1829 0
1012 1545 -191 1829 0
1012 1545 363 -1448 0
1012 1545 -363 1448 0
1012 1545 601 -2293 0
1012 1545 -601 2293 0
1012 342 0
1012 393 -1404 0
1012 -393 1404 0
1012 869 -191 0
1012 -869 191 0
1012 2428 -363 0
1012 -2428 363 0
1012 1715 -601 0
1012 -1715 601 0
-659 -585 -2159 0
-659 -585 -2242 0
-659 -585 -1504 0
-659 -585 -80 0
-659 -585 2086 -2242 0
-659 -585 -2086 2242 0
-659 -585 608 -80 0
-659 -585 -608 80 0
-659 -585 1030 -2159 0
-659 -585 -1030 2159 0
-659 -585 472 -1504 0
-659 -585 -472 1504 0
-659 585 2190 0
-659 585 1997 0
-659 585 1349 0
-659 585 780 0
-659 585 2086 -1997 0
-659 585 -2086 1997 0
-659 585 608 -780 0
-659 585 -608 780 0
-659 585 1030 -2190 0
-659 585 -1030 2190 0
-659 585 472 -1349 0
-659 585 -472 1349 0
-659 1060 0
-659 637 -2086 0
-659 -637 2086 0
-659 2122 -608 0
-659 -2122 608 0
-659 1498 -1030 0
-659 -1498 1030 0
-659 1548 -472 0
-659 -1548 472 0
659 -769 -1346 0
659 -769 -1144 0
659 -769 578 0
659 -769 965 0
659 -769 1409 -1144 0
659 -769 -1409 1144 0
659 -769 1581 -965 0
659 -769 -1581 965 0
659 -769 2135 -1346 0
659 -769 -2135 1346 0
659 -769 2009 -578 0
659 -769 -2009 578 0
659 769 1960 0
659 769 2075 0
659 769 -2344 0
659 769 -290 0
659 769 1409 -2075 0
659 769 -1409 2075 0
659 769 1581 -290 0
659 769 -1581 290 0
659 769 2135 -1960 0
659 769 -2135 1960 0
659 769 2009 -2344 0
659 769 -2009 2344 0
659 2258 0
659 637 -1409 0
659 -637 1409 0
659 2122 -1581 0
659 -2122 1581 0
659 1498 -2135 0
659 -1498 2135 0
659 1548 -2009 0
659 -1548 2009 0
-893 -1766 -334 0
-893 -1766 -194 0
-893 -1766 -1310 0
-893 -1766 -716 0
-893 -1766 141 -194 0
-893 -1766 -141 194 0
-893 -1766 256 -716 0
-893 -1766 -256 716 0
-893 -1766 850 -334 0
-893 -1766 -850 334 0
-893 -1766 1583 -1310 0
-893 -1766 -1583 1310 0
-893 1766 193 0
-893 1766 1157 0
-893 1766 2382 0
-893 1766 2036 0
-893 1766 141 -1157 0
-893 1766 -141 1157 0
-893 1766 256 -2036 0
-893 1766 -256 2036 0
-893 1766 850 -193 0
-893 1766 -850 193 0
-893 1766 1583 -2382 0
-893 1766 -1583 2382 0
-893 1085 0
-893 2038 -141 0
-893 -2038 141 0
-893 1265 -256 0
-893 -1265 256 0
-893 637 -850 0
-893 -637 850 0
-893 2426 -1583 0
-893 -2426 1583 0
893 -796 -998 0
893 -796 -788 0
893 -796 71 0
893 -796 844 0
893 -796 785 -788 0
893 -796 -785 788 0
893 -796 280 -844 0
893 -796 -280 844 0
893 -796 567 -998 0
893 -796 -567 998 0
893 -796 2398 -71 0
893 -796 -2398 71 0
893 796 951 0
893 796 883 0
893 796 -1168 0
893 796 -1072 0
893 796 785 -883 0
893 796 -785 883 0
893 796 280 -1072 0
893 796 -280 1072 0
893 796 567 -951 0
893 796 -567 951 0
893 796 2398 -1168 0
893 796 -2398 1168 0
893 131 0
893 2038 -785 0
893 -2038 785 0
893 1265 -280 0
893 -1265 280 0
893 637 -567 0
893 -637 567 0
893 2426 -2398 0
893 -2426 2398 0
-2240 -270 -1924 0
-2240 -270 -213 0
-2240 -270 -488 0
-2240 -270 -1122 0
-2240 -270 1891 -213 0
-2240 -270 -1891 213 0
-2240 -270 1590 -1122 0
-2240 -270 -1590 1122 0
-2240 -270 1145 -1924 0
-2240 -270 -1145 1924 0
-2240 -270 2162 -488 0
-2240 -270 -2162 488 0
-2240 270 1165 0
-2240 270 183 0
-2240 270 656 0
-2240 270 151 0
-2240 270 1891 -183 0
-2240 270 -1891 183 0
-2240 270 1590 -151 0
-2240 270 -1590 151 0
-2240 270 1145 -1165 0
-2240 270 -1145 1165 0
-2240 270 2162 -656 0
-2240 270 -2162 656 0
-2240 743 0
-2240 392 -1891 0
-2240 -392 1891 0
-2240 549 -1590 0
-2240 -549 1590 0
-2240 1059 -1145 0
-2240 -1059 1145 0
-2240 2122 -2162 0
-2240 -2122 2162 0
2240 -1709 -1332 0
2240 -1709 -1525 0
2240 -1709 2001 0
2240 -1709 1967 0
2240 -1709 224 -1525 0
2240 -1709 -224 1525 0
2240 -1709 62 -1967 0
2240 -1709 -62 1967 0
2240 -1709 706 -1332 0
2240 -1709 -706 1332 0
2240 -1709 1456 -2001 0
2240 -1709 -1456 2001 0
2240 1709 1482 0
2240 1709 682 0
2240 1709 -851 0
2240 1709 -1912 0
2240 1709 224 -682 0
2240 1709 -224 682 0
2240 1709 62 -1912 0
2240 1709 -62 1912 0
2240 1709 706 -1482 0
2240 1709 -706 1482 0
2240 1709 1456 -851 0
2240 1709 -1456 851 0
2240 1343 0
2240 392 -224 0
2240 -392 224 0
2240 549 -62 0
2240 -549 62 0
2240 1059 -706 0
2240 -1059 706 0
2240 2122 -1456 0
2240 -2122 1456 0
-1741 -707 -1959 0
-1741 -707 -166 0
-1741 -707 -1007 0
-1741 -707 -2073 0
-1741 -707 697 -166 0
-1741 -707 -697 166 0
-1741 -707 1684 -2073 0
-1741 -707 -1684 2073 0
-1741 -707 1150 -1959 0
-1741 -707 -1150 1959 0
-1741 -707 1996 -1007 0
-1741 -707 -1996 1007 0
-1741 707 380 0
-1741 707 648 0
-1741 707 2033 0
-1741 707 964 0
-1741 707 697 -648 0
-1741 707 -697 648 0
-1741 707 1684 -964 0
-1741 707 -1684 964 0
-1741 707 1150 -380 0
-1741 707 -1150 380 0
-1741 707 1996 -2033 0
-1741 707 -1996 2033 0
-1741 1420 0
-1741 63 -697 0
-1741 -63 697 0
-1741 384 -1684 0
-1741 -384 1684 0
-1741 392 -1150 0
-1741 -392 1150 0
-1741 1068 -1996 0
-1741 -1068 1996 0
1741 -55 -1229 0
1741 -55 -1207 0
1741 -55 1240 0
1741 -55 2267 0
1741 -55 1061 -1207 0
1741 -55 -1061 1207 0
1741 -55 203 -2267 0
1741 -55 -203 2267 0
1741 -55 919 -1229 0
1741 -55 -919 1229 0
1741 -55 1804 -1240 0
1741 -55 -1804 1240 0
1741 55 1705 0
1741 55 1451 0
1741 55 -2130 0
1741 55 -268 0
1741 55 1061 -1451 0
1741 55 -1061 1451 0
1741 55 203 -268 0
1741 55 -203 268 0
1741 55 919 -1705 0
1741 55 -919 1705 0
1741 55 1804 -2130 0
1741 55 -1804 2130 0
1741 1920 0
1741 63 -1061 0
1741 -63 1061 0
1741 384 -203 0
1741 -384 203 0
1741 392 -919 0
1741 -392 919 0
1741 1068 -1804 0
1741 -1068 1804 0
-2285 -2176 -594 0
-2285 -2176 -2160 0
-2285 -2176 -209 0
-2285 -2176 -355 0
-2285 -2176 1452 -2160 0
-2285 -2176 -1452 2160 0
-2285 -2176 1909 -355 0
-2285 -2176 -1909 355 0
-2285 -2176 628 -594 0
-2285 -2176 -628 594 0
-2285 -2176 663 -209 0
-2285 -2176 -663 209 0
-2285 2176 1176 0
-2285 2176 51 0
-2285 2176 905 0
-2285 2176 215 0
-2285 2176 1452 -51 0
-2285 2176 -1452 51 0
-2285 2176 1909 -215 0
-2285 2176 -1909 215 0
-2285 2176 628 -1176 0
-2285 2176 -628 1176 0
-2285 2176 663 -905 0
-2285 2176 -663 905 0
-2285 538 0
-2285 2081 -1452 0
-2285 -2081 1452 0
-2285 14 -1909 0
-2285 -14 1909 0
-2285 63 -628 0
-2285 -63 628 0
-2285 733 -663 0
-2285 -733 663 0
2285 -397 -1212 0
2285 -397 -2104 0
2285 -397 1512 0
2285 -397 819 0
2285 -397 2180 -2104 0
2285 -397 -2180 2104 0
2285 -397 450 -819 0
2285 -397 -450 819 0
2285 -397 518 -1212 0
2285 -397 -518 1212 0
2285 -397 2166 -1512 0
2285 -397 -2166 1512 0
2285 397 1308 0
2285 397 1833 0
2285 397 -560 0
2285 397 -901 0
2285 397 2180 -1833 0
2285 397 -2180 1833 0
2285 397 450 -901 0
2285 397 -450 901 0
2285 397 518 -1308 0
2285 397 -518 1308 0
2285 397 2166 -560 0
2285 397 -2166 560 0
2285 2056 0
2285 2081 -2180 0
2285 -2081 2180 0
2285 14 -450 0
2285 -14 450 0
2285 63 -518 0
2285 -63 518 0
2285 733 -2166 0
2285 -733 2166 0
-520 -1761 -2157 0
-520 -1761 -154 0
-520 -1761 -1292 0
-520 -1761 -1151 0
-520 -1761 1836 -154 0
-520 -1761 -1836 154 0
-520 -1761 1038 -1151 0
-520 -1761 -1038 1151 0
-520 -1761 1032 -2157 0
-520 -1761 -1032 2157 0
-520 -1761 1544 -1292 0
-520 -1761 -1544 1292 0
-520 1761 1708 0
-520 1761 984 0
-520 1761 2327 0
-520 1761 880 0
-520 1761 1836 -984 0
-520 1761 -1836 984 0
-520 1761 1038 -880 0
-520 1761 -1038 880 0
-520 1761 1032 -1708 0
-520 1761 -1032 1708 0
-520 1761 1544 -2327 0
-520 1761 -1544 2327 0
-520 1696 0
-520 458 -1836 0
-520 -458 1836 0
-520 1699 -1038 0
-520 -1699 1038 0
-520 2081 -1032 0
-520 -2081 1032 0
-520 1529 -1544 0
-520 -1529 1544 0
520 -489 -1172 0
520 -489 -1972 0
520 -489 1075 0
520 -489 115 0
520 -489 1881 -1972 0
520 -489 -1881 1972 0
520 -489 1444 -115 0
520 -489 -1444 115 0
520 -489 1071 -1172 0
520 -489 -1071 1172 0
520 -489 231 -1075 0
520 -489 -231 1075 0
520 489 1440 0
520 489 2290 0
520 489 -1161 0
520 489 -576 0
520 489 1881 -2290 0
520 489 -1881 2290 0
520 489 1444 -576 0
520 489 -1444 576 0
520 489 1071 -1440 0
520 489 -1071 1440 0
520 489 231 -1161 0
520 489 -231 1161 0
520 1702 0
520 458 -1881 0
520 -458 1881 0
520 1699 -1444 0
520 -1699 1444 0
520 2081 -1071 0
520 -2081 1071 0
520 1529 -231 0
520 -1529 231 0
-417 -1929 -755 0
-417 -1929 -1136 0
-417 -1929 -1173 0
-417 -1929 -930 0
-417 -1929 37 -1136 0
-417 -1929 -37 1136 0
-417 -1929 366 -930 0
-417 -1929 -366 930 0
-417 -1929 274 -755 0
-417 -1929 -274 755 0
-417 -1929 565 -1173 0
-417 -1929 -565 1173 0
-417 1929 765 0
-417 1929 1718 0
-417 1929 129 0
-417 1929 1985 0
-417 1929 37 -1718 0
-417 1929 -37 1718 0
-417 1929 366 -1985 0
-417 1929 -366 1985 0
-417 1929 274 -765 0
-417 1929 -274 765 0
-417 1929 565 -129 0
-417 1929 -565 129 0
-417 320 0
-417 1152 -37 0
-417 -1152 37 0
-417 2323 -366 0
-417 -2323 366 0
-417 458 -274 0
-417 -458 274 0
-417 75 -565 0
-417 -75 565 0
417 -1421 -22 0
417 -1421 -2143 0
417 -1421 846 0
417 -1421 1181 0
417 -1421 691 -2143 0
417 -1421 -691 2143 0
417 -1421 21 -1181 0
417 -1421 -21 1181 0
417 -1421 1252 -22 0
417 -1421 -1252 22 0
417 -1421 2389 -846 0
417 -1421 -2389 846 0
417 1421 1302 0
417 1421 1398 0
417 1421 -19 0
417 1421 -1620 0
417 1421 691 -1398 0
417 1421 -691 1398 0
417 1421 21 -1620 0
417 1421 -21 1620 0
417 1421 1252 -1302 0
417 1421 -1252 1302 0
417 1421 2389 -19 0
417 1421 -2389 19 0
417 1631 0
417 1152 -691 0
417 -1152 691 0
417 2323 -21 0
417 -2323 21 0
417 458 -1252 0
417 -458 1252 0
417 75 -2389 0
417 -75 2389 0
-926 -1815 -2249 0
-926 -1815 -835 0
-926 -1815 -1656 0
-926 -1815 -749 0
-926 -1815 866 -835 0
-926 -1815 -866 835 0
-926 -1815 1264 -749 0
-926 -1815 -1264 749 0
-926 -1815 1020 -2249 0
-926 -1815 -1020 2249 0
-926 -1815 381 -1656 0
-926 -1815 -381 1656 0
-926 1815 242 0
-926 1815 872 0
-926 1815 1305 0
-926 1815 377 0
-926 1815 866 -872 0
-926 1815 -866 872 0
-926 1815 1264 -377 0
-926 1815 -1264 377 0
-926 1815 1020 -242 0
-926 1815 -1020 242 0
-926 1815 381 -1305 0
-926 1815 -381 1305 0
-926 97 0
-926 453 -866 0
-926 -453 866 0
-926 36 -1264 0
-926 -36 1264 0
-926 1616 -1020 0
-926 -1616 1020 0
-926 67 -381 0
-926 -67 381 0
926 -2417 -1871 0
926 -2417 -2236 0
926 -2417 2023 0
926 -2417 2149 0
926 -2417 1552 -2236 0
926 -2417 -1552 2236 0
926 -2417 2248 -2149 0
926 -2417 -2248 2149 0
926 -2417 2183 -1871 0
926 -2417 -2183 1871 0
926 -2417 790 -2023 0
926 -2417 -790 2023 0
926 2417 145 0
926 2417 243 0
926 2417 -1093 0
926 2417 -802 0
926 2417 1552 -243 0
926 2417 -1552 243 0
926 2417 2248 -802 0
926 2417 -2248 802 0
926 2417 2183 -145 0
926 2417 -2183 145 0
926 2417 790 -1093 0
926 2417 -790 1093 0
926 1663 0
926 453 -1552 0
926 -453 1552 0
926 36 -2248 0
926 -36 2248 0
926 1616 -2183 0
926 -1616 2183 0
926 67 -790 0
926 -67 790 0
-33 -708 -2110 0
-33 -708 -1873 0
-33 -708 -1685 0
-33 -708 -1298 0
-33 -708 1129 -1873 0
-33 -708 -1129 1873 0
-33 -708 781 -1298 0
-33 -708 -781 1298 0
-33 -708 1818 -2110 0
-33 -708 -1818 2110 0
-33 -708 460 -1685 0
-33 -708 -460 1685 0
-33 708 966 0
-33 708 1874 0
-33 708 1801 0
-33 708 12 0
-33 708 1129 -1874 0
-33 708 -1129 1874 0
-33 708 781 -12 0
-33 708 -781 12 0
-33 708 1818 -966 0
-33 708 -1818 966 0
-33 708 460 -1801 0
-33 708 -460 1801 0
-33 169 0
-33 589 -1129 0
-33 -589 1129 0
-33 1285 -781 0
-33 -1285 781 0
-33 384 -1818 0
-33 -384 1818 0
-33 2309 -460 0
-33 -2309 460 0
33 -424 -437 0
33 -424 -279 0
33 -424 2078 0
33 -424 977 0
33 -424 1651 -279 0
33 -424 -1651 279 0
33 -424 124 -977 0
33 -424 -124 977 0
33 -424 2092 -437 0
33 -424 -2092 437 0
33 -424 91 -2078 0
33 -424 -91 2078 0
33 424 285 0
33 424 1377 0
33 424 -1576 0
33 424 -859 0
33 424 1651 -1377 0
33 424 -1651 1377 0
33 424 124 -859 0
33 424 -124 859 0
33 424 2092 -285 0
33 424 -2092 285 0
33 424 91 -1576 0
33 424 -91 1576 0
33 1043 0
33 589 -1651 0
33 -589 1651 0
33 1285 -124 0
33 -1285 124 0
33 384 -2092 0
33 -384 2092 0
33 2309 -91 0
33 -2309 91 0
-811 -635 -1380 0
-811 -635 -1286 0
-811 -635 -1177 0
-811 -635 -1362 0
-811 -635 1063 -1286 0
-811 -635 -1063 1286 0
-811 -635 503 -1362 0
-811 -635 -503 1362 0
-811 -635 365 -1380 0
-811 -635 -365 1380 0
-811 -635 1921 -1177 0
-811 -635 -1921 1177 0
-811 635 1039 0
-811 635 1190 0
-811 635 440 0
-811 635 580 0
-811 635 1063 -1190 0
-811 635 -1063 1190 0
-811 635 503 -580 0
-811 635 -503 580 0
-811 635 365 -1039 0
-811 635 -365 1039 0
-811 635 1921 -440 0
-811 635 -1921 440 0
-811 118 0
-811 1139 -1063 0
-811 -1139 1063 0
-811 2136 -503 0
-811 -2136 503 0
-811 589 -365 0
-811 -589 365 0
-811 88 -1921 0
-811 -88 1921 0
811 -106 -100 0
811 -106 -526 0
811 -106 508 0
811 -106 1463 0
811 -106 2119 -526 0
811 -106 -2119 526 0
811 -106 2274 -1463 0
811 -106 -2274 1463 0
811 -106 1518 -100 0
811 -106 -1518 100 0
811 -106 481 -508 0
811 -106 -481 508 0
811 106 134 0
811 106 2063 0
811 106 -2134 0
811 106 -2013 0
811 106 2119 -2063 0
811 106 -2119 2063 0
811 106 2274 -2013 0
811 106 -2274 2013 0
811 106 1518 -134 0
811 106 -1518 134 0
811 106 481 -2134 0
811 106 -481 2134 0
811 2297 0
811 1139 -2119 0
811 -1139 2119 0
811 2136 -2274 0
811 -2136 2274 0
811 589 -1518 0
811 -589 1518 0
811 88 -481 0
811 -88 481 0
-1655 -552 -1277 0
-1655 -552 -1918 0
-1655 -552 -1121 0
-1655 -552 -494 0
-1655 -552 2385 -1918 0
-1655 -552 -2385 1918 0
-1655 -552 464 -494 0
-1655 -552 -464 494 0
-1655 -552 1780 -1277 0
-1655 -552 -1780 1277 0
-1655 -552 218 -1121 0
-1655 -552 -218 1121 0
-1655 552 1580 0
-1655 552 38 0
-1655 552 1636 0
-1655 552 1736 0
-1655 552 2385 -38 0
-1655 552 -2385 38 0
-1655 552 464 -1736 0
-1655 552 -464 1736 0
-1655 552 1780 -1580 0
-1655 552 -1780 1580 0
-1655 552 218 -1636 0
-1655 552 -218 1636 0
-1655 1738 0
-1655 1834 -2385 0
-1655 -1834 2385 0
-1655 553 -464 0
-1655 -553 464 0
-1655 1285 -1780 0
-1655 -1285 1780 0
-1655 2120 -218 0
-1655 -2120 218 0
1655 -2074 -1084 0
1655 -2074 -1668 0
1655 -2074 364 0
1655 -2074 399 0
1655 -2074 1 -1668 0
1655 -2074 -1 1668 0
1655 -2074 1751 -399 0
1655 -2074 -1751 399 0
1655 -2074 739 -1084 0
1655 -2074 -739 1084 0
1655 -2074 1388 -364 0
1655 -2074 -1388 364 0
1655 2074 959 0
1655 2074 2097 0
1655 2074 -247 0
1655 2074 -2411 0
1655 2074 1 -2097 0
1655 2074 -1 2097 0
1655 2074 1751 -2411 0
1655 2074 -1751 2411 0
1655 2074 739 -959 0
1655 2074 -739 959 0
1655 2074 1388 -247 0
1655 2074 -1388 247 0
1655 1641 0
1655 1834 -1 0
1655 -1834 1 0
1655 553 -1751 0
1655 -553 1751 0
1655 1285 -739 0
1655 -1285 739 0
1655 2120 -1388 0
1655 -2120 1388 0
-113 -77 -1649 0
-113 -77 -894 0
-113 -77 -822 0
-113 -77 -1602 0
-113 -77 1187 -894 0
-113 -77 -1187 894 0
-113 -77 1074 -1602 0
-113 -77 -1074 1602 0
-113 -77 2264 -1649 0
-113 -77 -2264 1649 0
-113 -77 2316 -822 0
-113 -77 -2316 822 0
-113 77 410 0
-113 77 2373 0
-113 77 1234 0
-113 77 1113 0
-113 77 1187 -2373 0
-113 77 -1187 2373 0
-113 77 1074 -1113 0
-113 77 -1074 1113 0
-113 77 2264 -410 0
-113 77 -2264 410 0
-113 77 2316 -1234 0
-113 77 -2316 1234 0
-113 1970 0
-113 943 -1187 0
-113 -943 1187 0
-113 1779 -1074 0
-113 -1779 1074 0
-113 1834 -2264 0
-113 -1834 2264 0
-113 1687 -2316 0
-113 -1687 2316 0
113 -111 -2015 0
113 -111 -2114 0
113 -111 1033 0
113 -111 1330 0
113 -111 1081 -2114 0
113 -111 -1081 2114 0
113 -111 2115 -1330 0
113 -111 -2115 1330 0
113 -111 1016 -2015 0
113 -111 -1016 2015 0
113 -111 1495 -1033 0
113 -111 -1495 1033 0
113 111 1505 0
113 111 890 0
113 111 -1449 0
113 111 -915 0
113 111 1081 -890 0
113 111 -1081 890 0
113 111 2115 -915 0
113 111 -2115 915 0
113 111 1016 -1505 0
113 111 -1016 1505 0
113 111 1495 -1449 0
113 111 -1495 1449 0
113 841 0
113 943 -1081 0
113 -943 1081 0
113 1779 -2115 0
113 -1779 2115 0
113 1834 -1016 0
113 -1834 1016 0
113 1687 -1495 0
113 -1687 1495 0
-914 -1607 -2150 0
-914 -1607 -1755 0
-914 -1607 -2349 0
-914 -1607 -2182 0
-914 -1607 412 -1755 0
-914 -1607 -412 1755 0
-914 -1607 1117 -2182 0
-914 -1607 -1117 2182 0
-914 -1607 2193 -2150 0
-914 -1607 -2193 2150 0
-914 -1607 1578 -2349 0
-914 -1607 -1578 2349 0
-914 1607 1306 0
-914 1607 2112 0
-914 1607 1401 0
-914 1607 1903 0
-914 1607 412 -2112 0
-914 1607 -412 2112 0
-914 1607 1117 -1903 0
-914 1607 -1117 1903 0
-914 1607 2193 -1306 0
-914 1607 -2193 1306 0
-914 1607 1578 -1401 0
-914 1607 -1578 1401 0
-914 1272 0
-914 986 -412 0
-914 -986 412 0
-914 2095 -1117 0
-914 -2095 1117 0
-914 943 -2193 0
-914 -943 2193 0
-914 2323 -1578 0
-914 -2323 1578 0
914 -2223 -2064 0
914 -2223 -983 0
914 -2223 58 0
914 -2223 836 0
914 -2223 2031 -983 0
914 -2223 -2031 983 0
914 -2223 1037 -836 0
914 -2223 -1037 836 0
914 -2223 138 -2064 0
914 -2223 -138 2064 0
914 -2223 1860 -58 0
914 -2223 -1860 58 0
914 2223 326 0
914 2223 939 0
914 2223 -1854 0
914 2223 -1035 0
914 2223 2031 -939 0
914 2223 -2031 939 0
914 2223 1037 -1035 0
914 2223 -1037 1035 0
914 2223 138 -326 0
914 2223 -138 326 0
914 2223 1860 -1854 0
914 2223 -1860 1854 0
914 806 0
914 986 -2031 0
914 -986 2031 0
914 2095 -1037 0
914 -2095 1037 0
914 943 -138 0
914 -943 138 0
914 2323 -1860 0
914 -2323 1860 0
-1227 -2304 -2369 0
-1227 -2304 -616 0
-1227 -2304 -186 0
-1227 -2304 -1260 0
-1227 -2304 1571 -616 0
-1227 -2304 -1571 616 0
-1227 -2304 1484 -1260 0
-1227 -2304 -1484 1260 0
-1227 -2304 1758 -2369 0
-1227 -2304 -1758 2369 0
-1227 -2304 536 -186 0
-1227 -2304 -536 186 0
-1227 2304 409 0
-1227 2304 1447 0
-1227 2304 863 0
-1227 2304 2435 0
-1227 2304 1571 -1447 0
-1227 2304 -1571 1447 0
-1227 2304 1484 -2435 0
-1227 2304 -1484 2435 0
-1227 2304 1758 -409 0
-1227 2304 -1758 409 0
-1227 2304 536 -863 0
-1227 2304 -536 863 0
-1227 2007 0
-1227 2376 -1571 0
-1227 -2376 1571 0
-1227 1011 -1484 0
-1227 -1011 1484 0
-1227 1988 -1758 0
-1227 -1988 1758 0
-1227 2010 -536 0
-1227 -2010 536 0
1227 -996 -910 0
1227 -996 -889 0
1227 -996 314 0
1227 -996 2292 0
1227 -996 1282 -889 0
1227 -996 -1282 889 0
1227 -996 338 -2292 0
1227 -996 -338 2292 0
1227 -996 1827 -910 0
1227 -996 -1827 910 0
1227 -996 1469 -314 0
1227 -996 -1469 314 0
1227 996 891 0
1227 996 2268 0
1227 996 -432 0
1227 996 -1930 0
1227 996 1282 -2268 0
1227 996 -1282 2268 0
1227 996 338 -1930 0
1227 996 -338 1930 0
1227 996 1827 -891 0
1227 996 -1827 891 0
1227 996 1469 -432 0
1227 996 -1469 432 0
1227 2421 0
1227 2376 -1282 0
1227 -2376 1282 0
1227 1011 -338 0
1227 -1011 338 0
1227 1988 -1827 0
1227 -1988 1827 0
1227 2010 -1469 0
1227 -2010 1469 0
-1597 -833 -1843 0
-1597 -833 -1650 0
-1597 -833 -1334 0
-1597 -833 -814 0
-1597 -833 839 -1650 0
-1597 -833 -839 1650 0
-1597 -833 2395 -814 0
-1597 -833 -2395 814 0
-1597 -833 420 -1843 0
-1597 -833 -420 1843 0
-1597 -833 46 -1334 0
-1597 -833 -46 1334 0
-1597 833 374 0
-1597 833 2096 0
-1597 833 2003 0
-1597 833 1108 0
-1597 833 839 -2096 0
-1597 833 -839 2096 0
-1597 833 2395 -1108 0
-1597 833 -2395 1108 0
-1597 833 420 -374 0
-1597 833 -420 374 0
-1597 833 46 -2003 0
-1597 833 -46 2003 0
-1597 828 0
-1597 227 -839 0
-1597 -227 839 0
-1597 511 -2395 0
-1597 -511 2395 0
-1597 2376 -420 0
-1597 -2376 420 0
-1597 36 -46 0
-1597 -36 46 0
1597 -1370 -1394 0
1597 -1370 -92 0
1597 -1370 1439 0
1597 -1370 1982 0
1597 -1370 485 -92 0
1597 -1370 -485 92 0
1597 -1370 1178 -1982 0
1597 -1370 -1178 1982 0
1597 -1370 940 -1394 0
1597 -1370 -940 1394 0
1597 -1370 2354 -1439 0
1597 -1370 -2354 1439 0
1597 1370 2399 0
1597 1370 2185 0
1597 1370 -2059 0
1597 1370 -667 0
1597 1370 485 -2185 0
1597 1370 -485 2185 0
1597 1370 1178 -667 0
1597 1370 -1178 667 0
1597 1370 940 -2399 0
1597 1370 -940 2399 0
1597 1370 2354 -2059 0
1597 1370 -2354 2059 0
1597 722 0
1597 227 -485 0
1597 -227 485 0
1597 511 -1178 0
1597 -511 1178 0
1597 2376 -940 0
1597 -2376 940 0
1597 36 -2354 0
1597 -36 2354 0
-197 -1275 -1018 0
-197 -1275 -1914 0
-197 -1275 -295 0
-197 -1275 -1120 0
-197 -1275 1090 -1914 0
-197 -1275 -1090 1914 0
-197 -1275 1726 -1120 0
-197 -1275 -1726 1120 0
-197 -1275 2227 -1018 0
-197 -1275 -2227 1018 0
-197 -1275 1515 -295 0
-197 -1275 -1515 295 0
-197 1275 1502 0
-197 1275 389 0
-197 1275 945 0
-197 1275 1835 0
-197 1275 1090 -389 0
-197 1275 -1090 389 0
-197 1275 1726 -1835 0
-197 1275 -1726 1835 0
-197 1275 2227 -1502 0
-197 1275 -2227 1502 0
-197 1275 1515 -945 0
-197 1275 -1515 945 0
-197 2024 0
-197 1046 -1090 0
-197 -1046 1090 0
-197 1625 -1726 0
-197 -1625 1726 0
-197 204 -2227 0
-197 -204 2227 0
-197 2181 -1515 0
-197 -2181 1515 0
197 -1805 -1514 0
197 -1805 -906 0
197 -1805 1989 0
197 -1805 2247 0
197 -1805 2419 -906 0
197 -1805 -2419 906 0
197 -1805 86 -2247 0
197 -1805 -86 2247 0
197 -1805 515 -1514 0
197 -1805 -515 1514 0
197 -1805 1653 -1989 0
197 -1805 -1653 1989 0
197 1805 1942 0
197 1805 1748 0
197 1805 -496 0
197 1805 -933 0
197 1805 2419 -1748 0
197 1805 -2419 1748 0
197 1805 86 -933 0
197 1805 -86 933 0
197 1805 515 -1942 0
197 1805 -515 1942 0
197 1805 1653 -496 0
197 1805 -1653 496 0
197 1250 0
197 1046 -2419 0
197 -1046 2419 0
197 1625 -86 0
197 -1625 86 0
197 204 -515 0
197 -204 515 0
197 2181 -1653 0
197 -2181 1653 0
-2187 -651 -1140 0
-2187 -651 -634 0
-2187 -651 -2221 0
-2187 -651 -1949 0
-2187 -651 987 -634 0
-2187 -651 -987 634 0
-2187 -651 1313 -1949 0
-2187 -651 -1313 1949 0
-2187 -651 1648 -1140 0
-2187 -651 -1648 1140 0
-2187 -651 1562 -2221 0
-2187 -651 -1562 2221 0
-2187 651 1617 0
-2187 651 443 0
-2187 651 1619 0
-2187 651 1844 0
-2187 651 987 -443 0
-2187 651 -987 443 0
-2187 651 1313 -1844 0
-2187 651 -1313 1844 0
-2187 651 1648 -1617 0
-2187 651 -1648 1617 0
-2187 651 1562 -1619 0
-2187 651 -1562 1619 0
-2187 1817 0
-2187 1719 -987 0
-2187 -1719 987 0
-2187 1475 -1313 0
-2187 -1475 1313 0
-2187 112 -1648 0
-2187 -112 1648 0
-2187 1592 -1562 0
-2187 -1592 1562 0
2187 -2271 -1910 0
2187 -2271 -266 0
2187 -2271 160 0
2187 -2271 973 0
2187 -2271 1276 -266 0
2187 -2271 -1276 266 0
2187 -2271 668 -973 0
2187 -2271 -668 973 0
2187 -2271 1055 -1910 0
2187 -2271 -1055 1910 0
2187 -2271 325 -160 0
2187 -2271 -325 160 0
2187 2271 1707 0
2187 2271 161 0
2187 2271 -278 0
2187 2271 -1472 0
2187 2271 1276 -161 0
2187 2271 -1276 161 0
2187 2271 668 -1472 0
2187 2271 -668 1472 0
2187 2271 1055 -1707 0
2187 2271 -1055 1707 0
2187 2271 325 -278 0
2187 2271 -325 278 0
2187 1695 0
2187 1719 -1276 0
2187 -1719 1276 0
2187 1475 -668 0
2187 -1475 668 0
2187 112 -1055 0
2187 -112 1055 0
2187 1592 -325 0
2187 -1592 325 0
-1405 -2184 -1235 0
-1405 -2184 -1488 0
-1405 -2184 -2154 0
-1405 -2184 -1536 0
-1405 -2184 1559 -1488 0
-1405 -2184 -1559 1488 0
-1405 -2184 1487 -1536 0
-1405 -2184 -1487 1536 0
-1405 -2184 1646 -1235 0
-1405 -2184 -1646 1235 0
-1405 -2184 1786 -2154 0
-1405 -2184 -1786 2154 0
-1405 2184 1858 0
-1405 2184 1613 0
-1405 2184 1995 0
-1405 2184 370 0
-1405 2184 1559 -1613 0
-1405 2184 -1559 1613 0
-1405 2184 1487 -370 0
-1405 2184 -1487 370 0
-1405 2184 1646 -1858 0
-1405 2184 -1646 1858 0
-1405 2184 1786 -1995 0
-1405 2184 -1786 1995 0
-1405 1793 0
-1405 447 -1559 0
-1405 -447 1559 0
-1405 610 -1487 0
-1405 -610 1487 0
-1405 944 -1646 0
-1405 -944 1646 0
-1405 834 -1786 0
-1405 -834 1786 0
1405 -730 -1973 0
1405 -730 -513 0
1405 -730 1153 0
1405 -730 292 0
1405 -730 430 -513 0
1405 -730 -430 513 0
1405 -730 717 -292 0
1405 -730 -717 292 0
1405 -730 1454 -1973 0
1405 -730 -1454 1973 0
1405 -730 98 -1153 0
1405 -730 -98 1153 0
1405 730 1724 0
1405 730 476 0
1405 730 -1159 0
1405 730 -1852 0
1405 730 430 -476 0
1405 730 -430 476 0
1405 730 717 -1852 0
1405 730 -717 1852 0
1405 730 1454 -1724 0
1405 730 -1454 1724 0
1405 730 98 -1159 0
1405 730 -98 1159 0
1405 1446 0
1405 447 -430 0
1405 -447 430 0
1405 610 -717 0
1405 -610 717 0
1405 944 -1454 0
1405 -944 1454 0
1405 834 -98 0
1405 -834 98 0
-1230 -89 -2414 0
-1230 -89 -879 0
-1230 -89 -1255 0
-1230 -89 -2402 0
-1230 -89 1947 -879 0
-1230 -89 -1947 879 0
-1230 -89 1551 -2402 0
-1230 -89 -1551 2402 0
-1230 -89 1846 -2414 0
-1230 -89 -1846 2414 0
-1230 -89 711 -1255 0
-1230 -89 -711 1255 0
-1230 89 980 0
-1230 89 1882 0
-1230 89 2347 0
-1230 89 387 0
-1230 89 1947 -1882 0
-1230 89 -1947 1882 0
-1230 89 1551 -387 0
-1230 89 -1551 387 0
-1230 89 1846 -980 0
-1230 89 -1846 980 0
-1230 89 711 -2347 0
-1230 89 -711 2347 0
-1230 1224 0
-1230 1437 -1947 0
-1230 -1437 1947 0
-1230 1527 -1551 0
-1230 -1527 1551 0
-1230 478 -1846 0
-1230 -478 1846 0
-1230 2270 -711 0
-1230 -2270 711 0
1230 -260 -1983 0
1230 -260 -928 0
1230 -260 1263 0
1230 -260 143 0
1230 -260 1603 -928 0
1230 -260 -1603 928 0
1230 -260 125 -143 0
1230 -260 -125 143 0
1230 -260 1352 -1983 0
1230 -260 -1352 1983 0
1230 -260 265 -1263 0
1230 -260 -265 1263 0
1230 260 1798 0
1230 260 1841 0
1230 260 -754 0
1230 260 -895 0
1230 260 1603 -1841 0
1230 260 -1603 1841 0
1230 260 125 -895 0
1230 260 -125 895 0
1230 260 1352 -1798 0
1230 260 -1352 1798 0
1230 260 265 -754 0
1230 260 -265 754 0
1230 497 0
1230 1437 -1603 0
1230 -1437 1603 0
1230 1527 -125 0
1230 -1527 125 0
1230 478 -1352 0
1230 -478 1352 0
1230 2270 -265 0
1230 -2270 265 0
-636 -122 -1052 0
-636 -122 -956 0
-636 -122 -1067 0
-636 -122 -297 0
-636 -122 1862 -956 0
-636 -122 -1862 956 0
-636 -122 1837 -297 0
-636 -122 -1837 297 0
-636 -122 1543 -1052 0
-636 -122 -1543 1052 0
-636 -122 1006 -1067 0
-636 -122 -1006 1067 0
-636 122 2391 0
-636 122 1500 0
-636 122 463 0
-636 122 2188 0
-636 122 1862 -1500 0
-636 122 -1862 1500 0
-636 122 1837 -2188 0
-636 122 -1837 2188 0
-636 122 1543 -2391 0
-636 122 -1543 2391 0
-636 122 1006 -463 0
-636 122 -1006 463 0
-636 960 0
-636 1211 -1862 0
-636 -1211 1862 0
-636 2371 -1837 0
-636 -2371 1837 0
-636 1437 -1543 0
-636 -1437 1543 0
-636 511 -1006 0
-636 -511 1006 0
636 -532 -2424 0
636 -532 -1301 0
636 -532 546 0
636 -532 230 0
636 -532 369 -1301 0
636 -532 -369 1301 0
636 -532 1832 -230 0
636 -532 -1832 230 0
636 -532 1968 -2424 0
636 -532 -1968 2424 0
636 -532 1546 -546 0
636 -532 -1546 546 0
636 532 1199 0
636 532 119 0
636 532 -902 0
636 532 -911 0
636 532 369 -119 0
636 532 -369 119 0
636 532 1832 -911 0
636 532 -1832 911 0
636 532 1968 -1199 0
636 532 -1968 1199 0
636 532 1546 -902 0
636 532 -1546 902 0
636 1744 0
636 1211 -369 0
636 -1211 369 0
636 2371 -1832 0
636 -2371 1832 0
636 1437 -1968 0
636 -1437 1968 0
636 511 -1546 0
636 -511 1546 0
-1981 -2042 -190 0
-1981 -2042 -1442 0
-1981 -2042 -1954 0
-1981 -2042 -1568 0
-1981 -2042 1556 -1442 0
-1981 -2042 -1556 1442 0
-1981 -2042 202 -1568 0
-1981 -2042 -202 1568 0
-1981 -2042 1517 -190 0
-1981 -2042 -1517 190 0
-1981 -2042 2012 -1954 0
-1981 -2042 -2012 1954 0
-1981 2042 1639 0
-1981 2042 2225 0
-1981 2042 286 0
-1981 2042 1951 0
-1981 2042 1556 -2225 0
-1981 2042 -1556 2225 0
-1981 2042 202 -1951 0
-1981 2042 -202 1951 0
-1981 2042 1517 -1639 0
-1981 2042 -1517 1639 0
-1981 2042 2012 -286 0
-1981 2042 -2012 286 0
-1981 2340 0
-1981 298 -1556 0
-1981 -298 1556 0
-1981 1382 -202 0
-1981 -1382 202 0
-1981 1011 -1517 0
-1981 -1011 1517 0
-1981 2004 -2012 0
-1981 -2004 2012 0
1981 -362 -2310 0
1981 -362 -2139 0
1981 -362 1884 0
1981 -362 2343 0
1981 -362 2141 -2139 0
1981 -362 -2141 2139 0
1981 -362 148 -2343 0
1981 -362 -148 2343 0
1981 -362 5 -2310 0
1981 -362 -5 2310 0
1981 -362 1857 -1884 0
1981 -362 -1857 1884 0
1981 362 1228 0
1981 362 1541 0
1981 362 -2233 0
1981 362 -741 0
1981 362 2141 -1541 0
1981 362 -2141 1541 0
1981 362 148 -741 0
1981 362 -148 741 0
1981 362 5 -1228 0
1981 362 -5 1228 0
1981 362 1857 -2233 0
1981 362 -1857 2233 0
1981 60 0
1981 298 -2141 0
1981 -298 2141 0
1981 1382 -148 0
1981 -1382 148 0
1981 1011 -5 0
1981 -1011 5 0
1981 2004 -1857 0
1981 -2004 1857 0
-1372 -916 -1106 0
-1372 -916 -167 0
-1372 -916 -2189 0
-1372 -916 -2172 0
-1372 -916 756 -167 0
-1372 -916 -756 167 0
-1372 -916 221 -2172 0
-1372 -916 -221 2172 0
-1372 -916 359 -1106 0
-1372 -916 -359 1106 0
-1372 -916 607 -2189 0
-1372 -916 -607 2189 0
-1372 916 1023 0
-1372 916 740 0
-1372 916 917 0
-1372 916 1980 0
-1372 916 756 -740 0
-1372 916 -756 740 0
-1372 916 221 -1980 0
-1372 916 -221 1980 0
-1372 916 359 -1023 0
-1372 916 -359 1023 0
-1372 916 607 -917 0
-1372 916 -607 917 0
-1372 201 0
-1372 379 -756 0
-1372 -379 756 0
-1372 2194 -221 0
-1372 -2194 221 0
-1372 298 -359 0
-1372 -298 359 0
-1372 610 -607 0
-1372 -610 607 0
1372 -8 -1324 0
1372 -8 -913 0
1372 -8 1400 0
1372 -8 505 0
1372 -8 350 -913 0
1372 -8 -350 913 0
1372 -8 1003 -505 0
1372 -8 -1003 505 0
1372 -8 631 -1324 0
1372 -8 -631 1324 0
1372 -8 219 -1400 0
1372 -8 -219 1400 0
1372 8 702 0
1372 8 108 0
1372 8 -1269 0
1372 8 -117 0
1372 8 350 -108 0
1372 8 -350 108 0
1372 8 1003 -117 0
1372 8 -1003 117 0
1372 8 631 -702 0
1372 8 -631 702 0
1372 8 219 -1269 0
1372 8 -219 1269 0
1372 1683 0
1372 379 -350 0
1372 -379 350 0
1372 2194 -1003 0
1372 -2194 1003 0
1372 298 -631 0
1372 -298 631 0
1372 610 -219 0
1372 -610 219 0
-2103 -1681 -888 0
-2103 -1681 -1339 0
-2103 -1681 -1009 0
-2103 -1681 -1520 0
-2103 -1681 777 -1339 0
-2103 -1681 -777 1339 0
-2103 -1681 680 -1520 0
-2103 -1681 -680 1520 0
-2103 -1681 1462 -888 0
-2103 -1681 -1462 888 0
-2103 -1681 162 -1009 0
-2103 -1681 -162 1009 0
-2103 1681 735 0
-2103 1681 1716 0
-2103 1681 1767 0
-2103 1681 1138 0
-2103 1681 777 -1716 0
-2103 1681 -777 1716 0
-2103 1681 680 -1138 0
-2103 1681 -680 1138 0
-2103 1681 1462 -735 0
-2103 1681 -1462 735 0
-2103 1681 162 -1767 0
-2103 1681 -162 1767 0
-2103 1099 0
-2103 2068 -777 0
-2103 -2068 777 0
-2103 2171 -680 0
-2103 -2171 680 0
-2103 379 -1462 0
-2103 -379 1462 0
-2103 2095 -162 0
-2103 -2095 162 0
2103 -831 -1749 0
2103 -831 -2126 0
2103 -831 2173 0
2103 -831 241 0
2103 -831 854 -2126 0
2103 -831 -854 2126 0
2103 -831 172 -241 0
2103 -831 -172 241 0
2103 -831 1906 -1749 0
2103 -831 -1906 1749 0
2103 -831 1025 -2173 0
2103 -831 -1025 2173 0
2103 831 347 0
2103 831 1008 0
2103 831 -855 0
2103 831 -596 0
2103 831 854 -1008 0
2103 831 -854 1008 0
2103 831 172 -596 0
2103 831 -172 596 0
2103 831 1906 -347 0
2103 831 -1906 347 0
2103 831 1025 -855 0
2103 831 -1025 855 0
2103 2026 0
2103 2068 -854 0
2103 -2068 854 0
2103 2171 -172 0
2103 -2171 172 0
2103 379 -1906 0
2103 -379 1906 0
2103 2095 -1025 0
2103 -2095 1025 0
-2107 -981 -2384 0
-2107 -981 -289 0
-2107 -981 -1948 0
-2107 -981 -2230 0
-2107 -981 1208 -289 0
-2107 -981 -1208 289 0
-2107 -981 826 -2230 0
-2107 -981 -826 2230 0
-2107 -981 551 -2384 0
-2107 -981 -551 2384 0
-2107 -981 158 -1948 0
-2107 -981 -158 1948 0
-2107 981 416 0
-2107 981 1553 0
-2107 981 1657 0
-2107 981 622 0
-2107 981 1208 -1553 0
-2107 981 -1208 1553 0
-2107 981 826 -622 0
-2107 981 -826 622 0
-2107 981 551 -416 0
-2107 981 -551 416 0
-2107 981 158 -1657 0
-2107 981 -158 1657 0
-2107 909 0
-2107 312 -1208 0
-2107 -312 1208 0
-2107 1149 -826 0
-2107 -1149 826 0
-2107 1354 -551 0
-2107 -1354 551 0
-2107 1034 -158 0
-2107 -1034 158 0
2107 -373 -992 0
2107 -373 -1358 0
2107 -373 912 0
2107 -373 695 0
2107 -373 1480 -1358 0
2107 -373 -1480 1358 0
2107 -373 797 -695 0
2107 -373 -797 695 0
2107 -373 1539 -992 0
2107 -373 -1539 992 0
2107 -373 799 -912 0
2107 -373 -799 912 0
2107 373 1890 0
2107 373 157 0
2107 373 -1066 0
2107 373 -1233 0
2107 373 1480 -157 0
2107 373 -1480 157 0
2107 373 797 -1233 0
2107 373 -797 1233 0
2107 373 1539 -1890 0
2107 373 -1539 1890 0
2107 373 799 -1066 0
2107 373 -799 1066 0
2107 1565 0
2107 312 -1480 0
2107 -312 1480 0
2107 1149 -797 0
2107 -1149 797 0
2107 1354 -1539 0
2107 -1354 1539 0
2107 1034 -799 0
2107 -1034 799 0
-43 -501 -545 0
-43 -501 -1287 0
-43 -501 -2057 0
-43 -501 -566 0
-43 -501 1635 -1287 0
-43 -501 -1635 1287 0
-43 -501 746 -566 0
-43 -501 -746 566 0
-43 -501 1017 -545 0
-43 -501 -1017 545 0
-43 -501 72 -2057 0
-43 -501 -72 2057 0
-43 501 2416 0
-43 501 734 0
-43 501 995 0
-43 501 1645 0
-43 501 1635 -734 0
-43 501 -1635 734 0
-43 501 746 -1645 0
-43 501 -746 1645 0
-43 501 1017 -2416 0
-43 501 -1017 2416 0
-43 501 72 -995 0
-43 501 -72 995 0
-43 1962 0
-43 1712 -1635 0
-43 -1712 1635 0
-43 1574 -746 0
-43 -1574 746 0
-43 1402 -1017 0
-43 -1402 1017 0
-43 2317 -72 0
-43 -2317 72 0
43 -2277 -331 0
43 -2277 -1810 0
43 -2277 2413 0
43 -2277 784 0
43 -2277 1347 -1810 0
43 -2277 -1347 1810 0
43 -2277 2436 -784 0
43 -2277 -2436 784 0
43 -2277 721 -331 0
43 -2277 -721 331 0
43 -2277 2054 -2413 0
43 -2277 -2054 2413 0
43 2277 1747 0
43 2277 2381 0
43 2277 -1797 0
43 2277 -2237 0
43 2277 1347 -2381 0
43 2277 -1347 2381 0
43 2277 2436 -2237 0
43 2277 -2436 2237 0
43 2277 721 -1747 0
43 2277 -721 1747 0
43 2277 2054 -1797 0
43 2277 -2054 1797 0
43 1879 0
43 1712 -1347 0
43 -1712 1347 0
43 1574 -2436 0
43 -1574 2436 0
43 1402 -721 0
43 -1402 721 0
43 2317 -2054 0
43 -2317 2054 0
-953 -431 -1443 0
-953 -431 -671 0
-953 -431 -107 0
-953 -431 -1838 0
-953 -431 1323 -671 0
-953 -431 -1323 671 0
-953 -431 2062 -1838 0
-953 -431 -2062 1838 0
-953 -431 847 -1443 0
-953 -431 -847 1443 0
-953 -431 815 -107 0
-953 -431 -815 107 0
-953 431 70 0
-953 431 783 0
-953 431 1938 0
-953 431 303 0
-953 431 1323 -783 0
-953 431 -1323 783 0
-953 431 2062 -303 0
-953 431 -2062 303 0
-953 431 847 -70 0
-953 431 -847 70 0
-953 431 815 -1938 0
-953 431 -815 1938 0
-953 262 0
-953 645 -1323 0
-953 -645 1323 0
-953 1894 -2062 0
-953 -1894 2062 0
-953 1712 -847 0
-953 -1712 847 0
-953 2194 -815 0
-953 -2194 815 0
953 -395 -180 0
953 -395 -865 0
953 -395 2030 0
953 -395 712 0
953 -395 1682 -865 0
953 -395 -1682 865 0
953 -395 2328 -712 0
953 -395 -2328 712 0
953 -395 1802 -180 0
953 -395 -1802 180 0
953 -395 512 -2030 0
953 -395 -512 2030 0
953 395 1965 0
953 395 1125 0
953 395 -1053 0
953 395 -1045 0
953 395 1682 -1125 0
953 395 -1682 1125 0
953 395 2328 -1045 0
953 395 -2328 1045 0
953 395 1802 -1965 0
953 395 -1802 1965 0
953 395 512 -1053 0
953 395 -512 1053 0
953 1821 0
953 645 -1682 0
953 -645 1682 0
953 1894 -2328 0
953 -1894 2328 0
953 1712 -1802 0
953 -1712 1802 0
953 2194 -512 0
953 -2194 512 0
-1200 -1160 -1065 0
-1200 -1160 -1241 0
-1200 -1160 -1700 0
-1200 -1160 -613 0
-1200 -1160 2243 -1241 0
-1200 -1160 -2243 1241 0
-1200 -1160 291 -613 0
-1200 -1160 -291 613 0
-1200 -1160 2060 -1065 0
-1200 -1160 -2060 1065 0
-1200 -1160 936 -1700 0
-1200 -1160 -936 1700 0
-1200 1160 583 0
-1200 1160 725 0
-1200 1160 1004 0
-1200 1160 2392 0
-1200 1160 2243 -725 0
-1200 1160 -2243 725 0
-1200 1160 291 -2392 0
-1200 1160 -291 2392 0
-1200 1160 2060 -583 0
-1200 1160 -2060 583 0
-1200 1160 936 -1004 0
-1200 1160 -936 1004 0
-1200 1319 0
-1200 1666 -2243 0
-1200 -1666 2243 0
-1200 1119 -291 0
-1200 -1119 291 0
-1200 1574 -2060 0
-1200 -1574 2060 0
-1200 1382 -936 0
-1200 -1382 936 0
1200 -121 -236 0
1200 -121 -1167 0
1200 -121 929 0
1200 -121 492 0
1200 -121 860 -1167 0
1200 -121 -860 1167 0
1200 -121 900 -492 0
1200 -121 -900 492 0
1200 -121 1411 -236 0
1200 -121 -1411 236 0
1200 -121 537 -929 0
1200 -121 -537 929 0
1200 121 1950 0
1200 121 123 0
1200 121 -1205 0
1200 121 -2111 0
1200 121 860 -123 0
1200 121 -860 123 0
1200 121 900 -2111 0
1200 121 -900 2111 0
1200 121 1411 -1950 0
1200 121 -1411 1950 0
1200 121 537 -1205 0
1200 121 -537 1205 0
1200 644 0
1200 1666 -860 0
1200 -1666 860 0
1200 1119 -900 0
1200 -1119 900 0
1200 1574 -1411 0
1200 -1574 1411 0
1200 1382 -537 0
1200 -1382 537 0
-1303 -2219 -1640 0
-1303 -2219 -1870 0
-1303 -2219 -1428 0
-1303 -2219 -1943 0
-1303 -2219 128 -1870 0
-1303 -2219 -128 1870 0
-1303 -2219 757 -1943 0
-1303 -2219 -757 1943 0
-1303 -2219 2049 -1640 0
-1303 -2219 -2049 1640 0
-1303 -2219 804 -1428 0
-1303 -2219 -804 1428 0
-1303 2219 391 0
-1303 2219 235 0
-1303 2219 653 0
-1303 2219 455 0
-1303 2219 128 -235 0
-1303 2219 -128 235 0
-1303 2219 757 -455 0
-1303 2219 -757 455 0
-1303 2219 2049 -391 0
-1303 2219 -2049 391 0
-1303 2219 804 -653 0
-1303 2219 -804 653 0
-1303 2403 0
-1303 1013 -128 0
-1303 -1013 128 0
-1303 2433 -757 0
-1303 -2433 757 0
-1303 564 -2049 0
-1303 -564 2049 0
-1303 553 -804 0
-1303 -553 804 0
1303 -2098 -1952 0
1303 -2098 -1662 0
1303 -2098 52 0
1303 -2098 1312 0
1303 -2098 1773 -1662 0
1303 -2098 -1773 1662 0
1303 -2098 731 -1312 0
1303 -2098 -731 1312 0
1303 -2098 1353 -1952 0
1303 -2098 -1353 1952 0
1303 -2098 239 -52 0
1303 -2098 -239 52 0
1303 2098 109 0
1303 2098 830 0
1303 2098 -1204 0
1303 2098 -1560 0
1303 2098 1773 -830 0
1303 2098 -1773 830 0
1303 2098 731 -1560 0
1303 2098 -731 1560 0
1303 2098 1353 -109 0
1303 2098 -1353 109 0
1303 2098 239 -1204 0
1303 2098 -239 1204 0
1303 665 0
1303 1013 -1773 0
1303 -1013 1773 0
1303 2433 -731 0
1303 -2433 731 0
1303 564 -1353 0
1303 -564 1353 0
1303 553 -239 0
1303 -553 239 0
-375 -685 -2206 0
-375 -685 -1955 0
-375 -685 -1360 0
-375 -685 -2045 0
-375 -685 877 -1955 0
-375 -685 -877 1955 0
-375 -685 2254 -2045 0
-375 -685 -2254 2045 0
-375 -685 1450 -2206 0
-375 -685 -1450 2206 0
-375 -685 643 -1360 0
-375 -685 -643 1360 0
-375 685 1123 0
-375 685 2266 0
-375 685 1932 0
-375 685 531 0
-375 685 877 -2266 0
-375 685 -877 2266 0
-375 685 2254 -531 0
-375 685 -2254 531 0
-375 685 1450 -1123 0
-375 685 -1450 1123 0
-375 685 643 -1932 0
-375 685 -643 1932 0
-375 65 0
-375 25 -877 0
-375 -25 877 0
-375 2211 -2254 0
-375 -2211 2254 0
-375 1013 -1450 0
-375 -1013 1450 0
-375 1406 -643 0
-375 -1406 643 0
375 -1218 -961 0
375 -1218 -958 0
375 -1218 1137 0
375 -1218 878 0
375 -1218 1937 -958 0
375 -1218 -1937 958 0
375 -1218 1978 -878 0
375 -1218 -1978 878 0
375 -1218 2346 -961 0
375 -1218 -2346 961 0
375 -1218 693 -1137 0
375 -1218 -693 1137 0
375 1218 2212 0
375 1218 1271 0
375 1218 -2093 0
375 1218 -1622 0
375 1218 1937 -1271 0
375 1218 -1937 1271 0
375 1218 1978 -1622 0
375 1218 -1978 1622 0
375 1218 2346 -2212 0
375 1218 -2346 2212 0
375 1218 693 -2093 0
375 1218 -693 2093 0
375 1366 0
375 25 -1937 0
375 -25 1937 0
375 2211 -1978 0
375 -2211 1978 0
375 1013 -2346 0
375 -1013 2346 0
375 1406 -693 0
375 -1406 693 0
-446 -1340 -968 0
-446 -1340 -1633 0
-446 -1340 -20 0
-446 -1340 -2043 0
-446 -1340 419 -1633 0
-446 -1340 -419 1633 0
-446 -1340 1041 -2043 0
-446 -1340 -1041 2043 0
-446 -1340 1245 -968 0
-446 -1340 -1245 968 0
-446 -1340 2408 -20 0
-446 -1340 -2408 20 0
-446 1340 1044 0
-446 1340 439 0
-446 1340 1830 0
-446 1340 1297 0
-446 1340 419 -439 0
-446 1340 -419 439 0
-446 1340 1041 -1297 0
-446 1340 -1041 1297 0
-446 1340 1245 -1044 0
-446 1340 -1245 1044 0
-446 1340 2408 -1830 0
-446 1340 -2408 1830 0
-446 569 0
-446 1293 -419 0
-446 -1293 419 0
-446 774 -1041 0
-446 -774 1041 0
-446 25 -1245 0
-446 -25 1245 0
-446 53 -2408 0
-446 -53 2408 0
446 -66 -50 0
446 -66 -1609 0
446 -66 284 0
446 -66 1221 0
446 -66 78 -1609 0
446 -66 -78 1609 0
446 -66 142 -1221 0
446 -66 -142 1221 0
446 -66 2161 -50 0
446 -66 -2161 50 0
446 -66 406 -284 0
446 -66 -406 284 0
446 66 1429 0
446 66 2367 0
446 66 -27 0
446 66 -1855 0
446 66 78 -2367 0
446 66 -78 2367 0
446 66 142 -1855 0
446 66 -142 1855 0
446 66 2161 -1429 0
446 66 -2161 1429 0
446 66 406 -27 0
446 66 -406 27 0
446 1754 0
446 1293 -78 0
446 -1293 78 0
446 774 -142 0
446 -774 142 0
446 25 -2161 0
446 -25 2161 0
446 53 -406 0
446 -53 406 0
-104 -918 -2431 0
-104 -918 -1672 0
-104 -918 -1435 0
-104 -918 -459 0
-104 -918 1124 -1672 0
-104 -918 -1124 1672 0
-104 -918 234 -459 0
-104 -918 -234 459 0
-104 -918 264 -2431 0
-104 -918 -264 2431 0
-104 -918 1516 -1435 0
-104 -918 -1516 1435 0
-104 918 1953 0
-104 918 556 0
-104 918 1922 0
-104 918 2091 0
-104 918 1124 -556 0
-104 918 -1124 556 0
-104 918 234 -2091 0
-104 918 -234 2091 0
-104 918 264 -1953 0
-104 918 -264 1953 0
-104 918 1516 -1922 0
-104 918 -1516 1922 0
-104 83 0
-104 714 -1124 0
-104 -714 1124 0
-104 1267 -234 0
-104 -1267 234 0
-104 1878 -264 0
-104 -1878 264 0
-104 2371 -1516 0
-104 -2371 1516 0
104 -2387 -1105 0
104 -2387 -579 0
104 -2387 2205 0
104 -2387 1992 0
104 -2387 1812 -579 0
104 -2387 -1812 579 0
104 -2387 1019 -1992 0
104 -2387 -1019 1992 0
104 -2387 2339 -1105 0
104 -2387 -2339 1105 0
104 -2387 1471 -2205 0
104 -2387 -1471 2205 0
104 2387 466 0
104 2387 1849 0
104 2387 -688 0
104 2387 -1901 0
104 2387 1812 -1849 0
104 2387 -1812 1849 0
104 2387 1019 -1901 0
104 2387 -1019 1901 0
104 2387 2339 -466 0
104 2387 -2339 466 0
104 2387 1471 -688 0
104 2387 -1471 688 0
104 621 0
104 714 -1812 0
104 -714 1812 0
104 1267 -1019 0
104 -1267 1019 0
104 1878 -2339 0
104 -1878 2339 0
104 2371 -1471 0
104 -2371 1471 0
-421 -1823 -474 0
-421 -1823 -1253 0
-421 -1823 -1174 0
-421 -1823 -1403 0
-421 -1823 2018 -1253 0
-421 -1823 -2018 1253 0
-421 -1823 1789 -1403 0
-421 -1823 -1789 1403 0
-421 -1823 1441 -474 0
-421 -1823 -1441 474 0
-421 -1823 2041 -1174 0
-421 -1823 -2041 1174 0
-421 1823 386 0
-421 1823 1564 0
-421 1823 1550 0
-421 1823 1999 0
-421 1823 2018 -1564 0
-421 1823 -2018 1564 0
-421 1823 1789 -1999 0
-421 1823 -1789 1999 0
-421 1823 1441 -386 0
-421 1823 -1441 386 0
-421 1823 2041 -1550 0
-421 1823 -2041 1550 0
-421 1706 0
-421 1816 -2018 0
-421 -1816 2018 0
-421 84 -1789 0
-421 -84 1789 0
-421 714 -1441 0
-421 -714 1441 0
-421 1262 -2041 0
-421 -1262 2041 0
421 -922 -1280 0
421 -922 -2087 0
421 -922 861 0
421 -922 1614 0
421 -922 206 -2087 0
421 -922 -206 2087 0
421 -922 1601 -1614 0
421 -922 -1601 1614 0
421 -922 475 -1280 0
421 -922 -475 1280 0
421 -922 1379 -861 0
421 -922 -1379 861 0
421 922 1284 0
421 922 2094 0
421 922 -2020 0
421 922 -396 0
421 922 206 -2094 0
421 922 -206 2094 0
421 922 1601 -396 0
421 922 -1601 396 0
421 922 475 -1284 0
421 922 -475 1284 0
421 922 1379 -2020 0
421 922 -1379 2020 0
421 1693 0
421 1816 -206 0
421 -1816 206 0
421 84 -1601 0
421 -84 1601 0
421 714 -475 0
421 -714 475 0
421 1262 -1379 0
421 -1262 1379 0
-1809 -2279 -1586 0
-1809 -2279 -1116 0
-1809 -2279 -1604 0
-1809 -2279 -1605 0
-1809 -2279 394 -1116 0
-1809 -2279 -394 1116 0
-1809 -2279 738 -1605 0
-1809 -2279 -738 1605 0
-1809 -2279 316 -1586 0
-1809 -2279 -316 1586 0
-1809 -2279 2252 -1604 0
-1809 -2279 -2252 1604 0
-1809 2279 2099 0
-1809 2279 360 0
-1809 2279 164 0
-1809 2279 787 0
-1809 2279 394 -360 0
-1809 2279 -394 360 0
-1809 2279 738 -787 0
-1809 2279 -738 787 0
-1809 2279 316 -2099 0
-1809 2279 -316 2099 0
-1809 2279 2252 -164 0
-1809 2279 -2252 164 0
-1809 1925 0
-1809 1725 -394 0
-1809 -1725 394 0
-1809 1291 -738 0
-1809 -1291 738 0
-1809 1816 -316 0
-1809 -1816 316 0
-1809 2171 -2252 0
-1809 -2171 2252 0
1809 -704 -818 0
1809 -704 -127 0
1809 -704 211 0
1809 -704 390 0
1809 -704 49 -127 0
1809 -704 -49 127 0
1809 -704 1325 -390 0
1809 -704 -1325 390 0
1809 -704 571 -818 0
1809 -704 -571 818 0
1809 -704 1345 -211 0
1809 -704 -1345 211 0
1809 704 1299 0
1809 704 1001 0
1809 704 -1134 0
1809 704 -516 0
1809 704 49 -1001 0
1809 704 -49 1001 0
1809 704 1325 -516 0
1809 704 -1325 516 0
1809 704 571 -1299 0
1809 704 -571 1299 0
1809 704 1345 -1134 0
1809 704 -1345 1134 0
1809 429 0
1809 1725 -49 0
1809 -1725 49 0
1809 1291 -1325 0
1809 -1291 1325 0
1809 1816 -571 0
1809 -1816 571 0
1809 2171 -1345 0
1809 -2171 1345 0
-140 -468 -1555 0
-140 -468 -2377 0
-140 -468 -696 0
-140 -468 -1315 0
-140 -468 2113 -2377 0
-140 -468 -2113 2377 0
-140 -468 1461 -1315 0
-140 -468 -1461 1315 0
-140 -468 1750 -1555 0
-140 -468 -1750 1555 0
-140 -468 920 -696 0
-140 -468 -920 696 0
-140 468 354 0
-140 468 1118 0
-140 468 1788 0
-140 468 2008 0
-140 468 2113 -1118 0
-140 468 -2113 1118 0
-140 468 1461 -2008 0
-140 468 -1461 2008 0
-140 468 1750 -354 0
-140 468 -1750 354 0
-140 468 920 -1788 0
-140 468 -920 1788 0
-140 1376 0
-140 495 -2113 0
-140 -495 2113 0
-140 1847 -1461 0
-140 -1847 1461 0
-140 2433 -1750 0
-140 -2433 1750 0
-140 2415 -920 0
-140 -2415 920 0
140 -487 -1300 0
140 -487 -2351 0
140 -487 629 0
140 -487 1497 0
140 -487 1489 -2351 0
140 -487 -1489 2351 0
140 -487 1158 -1497 0
140 -487 -1158 1497 0
140 -487 2164 -1300 0
140 -487 -2164 1300 0
140 -487 2288 -629 0
140 -487 -2288 629 0
140 487 3 0
140 487 2035 0
140 487 -1775 0
140 487 -132 0
140 487 1489 -2035 0
140 487 -1489 2035 0
140 487 1158 -132 0
140 487 -1158 132 0
140 487 2164 -3 0
140 487 -2164 3 0
140 487 2288 -1775 0
140 487 -2288 1775 0
140 1318 0
140 495 -1489 0
140 -495 1489 0
140 1847 -1158 0
140 -1847 1158 0
140 2433 -2164 0
140 -2433 2164 0
140 2415 -2288 0
140 -2415 2288 0
-1329 -775 -1361 0
-1329 -775 -199 0
-1329 -775 -813 0
-1329 -775 -1888 0
-1329 -775 744 -199 0
-1329 -775 -744 199 0
-1329 -775 2261 -1888 0
-1329 -775 -2261 1888 0
-1329 -775 176 -1361 0
-1329 -775 -176 1361 0
-1329 -775 2336 -813 0
-1329 -775 -2336 813 0
-1329 775 619 0
-1329 775 692 0
-1329 775 225 0
-1329 775 615 0
-1329 775 744 -692 0
-1329 775 -744 692 0
-1329 775 2261 -615 0
-1329 775 -2261 615 0
-1329 775 176 -619 0
-1329 775 -176 619 0
-1329 775 2336 -225 0
-1329 775 -2336 225 0
-1329 2324 0
-1329 96 -744 0
-1329 -96 744 0
-1329 624 -2261 0
-1329 -624 2261 0
-1329 1847 -176 0
-1329 -1847 176 0
-1329 2211 -2336 0
-1329 -2211 2336 0
1329 -276 -1492 0
1329 -276 -540 0
1329 -276 1477 0
1329 -276 1249 0
1329 -276 1373 -540 0
1329 -276 -1373 540 0
1329 -276 2296 -1249 0
1329 -276 -2296 1249 0
1329 -276 2217 -1492 0
1329 -276 -2217 1492 0
1329 -276 150 -1477 0
1329 -276 -150 1477 0
1329 276 415 0
1329 276 2100 0
1329 276 -923 0
1329 276 -638 0
1329 276 1373 -2100 0
1329 276 -1373 2100 0
1329 276 2296 -638 0
1329 276 -2296 638 0
1329 276 2217 -415 0
1329 276 -2217 415 0
1329 276 150 -923 0
1329 276 -150 923 0
1329 1101 0
1329 96 -1373 0
1329 -96 1373 0
1329 624 -2296 0
1329 -624 2296 0
1329 1847 -2217 0
1329 -1847 2217 0
1329 2211 -150 0
1329 -2211 150 0
-1822 -2167 -1979 0
-1822 -2167 -2388 0
-1822 -2167 -2121 0
-1822 -2167 -2269 0
-1822 -2167 524 -2388 0
-1822 -2167 -524 2388 0
-1822 -2167 689 -2269 0
-1822 -2167 -689 2269 0
-1822 -2167 1669 -1979 0
-1822 -2167 -1669 1979 0
-1822 -2167 1203 -2121 0
-1822 -2167 -1203 2121 0
-1822 2167 1317 0
-1822 2167 2089 0
-1822 2167 1692 0
-1822 2167 2231 0
-1822 2167 524 -2089 0
-1822 2167 -524 2089 0
-1822 2167 689 -2231 0
-1822 2167 -689 2231 0
-1822 2167 1669 -1317 0
-1822 2167 -1669 1317 0
-1822 2167 1203 -1692 0
-1822 2167 -1203 1692 0
-1822 1859 0
-1822 498 -524 0
-1822 -498 524 0
-1822 1002 -689 0
-1822 -1002 689 0
-1822 93 -1669 0
-1822 -93 1669 0
-1822 2263 -1203 0
-1822 -2263 1203 0
1822 -2251 -1770 0
1822 -2251 -403 0
1822 -2251 1322 0
1822 -2251 1986 0
1822 -2251 1163 -403 0
1822 -2251 -1163 403 0
1822 -2251 2105 -1986 0
1822 -2251 -2105 1986 0
1822 -2251 1971 -1770 0
1822 -2251 -1971 1770 0
1822 -2251 2294 -1322 0
1822 -2251 -2294 1322 0
1822 2251 1049 0
1822 2251 1899 0
1822 2251 -422 0
1822 2251 -2422 0
1822 2251 1163 -1899 0
1822 2251 -1163 1899 0
1822 2251 2105 -2422 0
1822 2251 -2105 2422 0
1822 2251 1971 -1049 0
1822 2251 -1971 1049 0
1822 2251 2294 -422 0
1822 2251 -2294 422 0
1822 470 0
1822 498 -1163 0
1822 -498 1163 0
1822 1002 -2105 0
1822 -1002 2105 0
1822 93 -1971 0
1822 -93 1971 0
1822 2263 -2294 0
1822 -2263 2294 0
-1612 -2039 -1785 0
-1612 -2039 -1493 0
-1612 -2039 -1783 0
-1612 -2039 -1367 0
-1612 -2039 352 -1493 0
-1612 -2039 -352 1493 0
-1612 -2039 2019 -1367 0
-1612 -2039 -2019 1367 0
-1612 -2039 1466 -1785 0
-1612 -2039 -1466 1785 0
-1612 -2039 1156 -1783 0
-1612 -2039 -1156 1783 0
-1612 2039 962 0
-1612 2039 1977 0
-1612 2039 1563 0
-1612 2039 658 0
-1612 2039 352 -1977 0
-1612 2039 -352 1977 0
-1612 2039 2019 -658 0
-1612 2039 -2019 658 0
-1612 2039 1466 -962 0
-1612 2039 -1466 962 0
-1612 2039 1156 -1563 0
-1612 2039 -1156 1563 0
-1612 2300 0
-1612 2133 -352 0
-1612 -2133 352 0
-1612 1418 -2019 0
-1612 -1418 2019 0
-1612 498 -1466 0
-1612 -498 1466 0
-1612 869 -1156 0
-1612 -869 1156 0
1612 -678 -1941 0
1612 -678 -293 0
1612 -678 1194 0
1612 -678 2118 0
1612 -678 23 -293 0
1612 -678 -23 293 0
1612 -678 924 -2118 0
1612 -678 -924 2118 0
1612 -678 1939 -1941 0
1612 -678 -1939 1941 0
1612 -678 120 -1194 0
1612 -678 -120 1194 0
1612 678 1763 0
1612 678 1588 0
1612 678 -385 0
1612 678 -661 0
1612 678 23 -1588 0
1612 678 -23 1588 0
1612 678 924 -661 0
1612 678 -924 661 0
1612 678 1939 -1763 0
1612 678 -1939 1763 0
1612 678 120 -385 0
1612 678 -120 385 0
1612 745 0
1612 2133 -23 0
1612 -2133 23 0
1612 1418 -924 0
1612 -1418 924 0
1612 498 -1939 0
1612 -498 1939 0
1612 869 -120 0
1612 -869 120 0
-1647 -1572 -2437 0
-1647 -1572 -445 0
-1647 -1572 -1005 0
-1647 -1572 -1333 0
-1647 -1572 1393 -445 0
-1647 -1572 -1393 445 0
-1647 -1572 1998 -1333 0
-1647 -1572 -1998 1333 0
-1647 -1572 2363 -2437 0
-1647 -1572 -2363 2437 0
-1647 -1572 1148 -1005 0
-1647 -1572 -1148 1005 0
-1647 1572 504 0
-1647 1572 15 0
-1647 1572 1872 0
-1647 1572 1104 0
-1647 1572 1393 -15 0
-1647 1572 -1393 15 0
-1647 1572 1998 -1104 0
-1647 1572 -1998 1104 0
-1647 1572 2363 -504 0
-1647 1572 -2363 504 0
-1647 1572 1148 -1872 0
-1647 1572 -1148 1872 0
-1647 357 0
-1647 2374 -1393 0
-1647 -2374 1393 0
-1647 1659 -1998 0
-1647 -1659 1998 0
-1647 624 -2363 0
-1647 -624 2363 0
-1647 774 -1148 0
-1647 -774 1148 0
1647 -223 -467 0
1647 -223 -1703 0
1647 -223 408 0
1647 -223 732 0
1647 -223 1721 -1703 0
1647 -223 -1721 1703 0
1647 -223 2289 -732 0
1647 -223 -2289 732 0
1647 -223 1295 -467 0
1647 -223 -1295 467 0
1647 -223 1694 -408 0
1647 -223 -1694 408 0
1647 223 2163 0
1647 223 1585 0
1647 223 -1238 0
1647 223 -17 0
1647 223 1721 -1585 0
1647 223 -1721 1585 0
1647 223 2289 -17 0
1647 223 -2289 17 0
1647 223 1295 -2163 0
1647 223 -1295 2163 0
1647 223 1694 -1238 0
1647 223 -1694 1238 0
1647 1114 0
1647 2374 -1721 0
1647 -2374 1721 0
1647 1659 -2289 0
1647 -1659 2289 0
1647 624 -1295 0
1647 -624 1295 0
1647 774 -1694 0
1647 -774 1694 0
-2314 -2148 -2272 0
-2314 -2148 -1742 0
-2314 -2148 -1593 0
-2314 -2148 -1356 0
-2314 -2148 1905 -1742 0
-2314 -2148 -1905 1742 0
-2314 -2148 1256 -1356 0
-2314 -2148 -1256 1356 0
-2314 -2148 2066 -2272 0
-2314 -2148 -2066 2272 0
-2314 -2148 626 -1593 0
-2314 -2148 -626 1593 0
-2314 2148 1384 0
-2314 2148 2244 0
-2314 2148 1665 0
-2314 2148 2326 0
-2314 2148 1905 -2244 0
-2314 2148 -1905 2244 0
-2314 2148 1256 -2326 0
-2314 2148 -1256 2326 0
-2314 2148 2066 -1384 0
-2314 2148 -2066 1384 0
-2314 2148 626 -1665 0
-2314 2148 -626 1665 0
-2314 237 0
-2314 1193 -1905 0
-2314 -1193 1905 0
-2314 584 -1256 0
-2314 -584 1256 0
-2314 2374 -2066 0
-2314 -2374 2066 0
-2314 321 -626 0
-2314 -321 626 0
2314 -2250 -2216 0
2314 -2250 -724 0
2314 -2250 1674 0
2314 -2250 245 0
2314 -2250 1396 -724 0
2314 -2250 -1396 724 0
2314 -2250 1184 -245 0
2314 -2250 -1184 245 0
2314 -2250 1359 -2216 0
2314 -2250 -1359 2216 0
2314 -2250 1530 -1674 0
2314 -2250 -1530 1674 0
2314 2250 1248 0
2314 2250 1730 0
2314 2250 -1021 0
2314 2250 -1519 0
2314 2250 1396 -1730 0
2314 2250 -1396 1730 0
2314 2250 1184 -1519 0
2314 2250 -1184 1519 0
2314 2250 1359 -1248 0
2314 2250 -1359 1248 0
2314 2250 1530 -1021 0
2314 2250 -1530 1021 0
2314 2287 0
2314 1193 -1396 0
2314 -1193 1396 0
2314 584 -1184 0
2314 -584 1184 0
2314 2374 -1359 0
2314 -2374 1359 0
2314 321 -1530 0
2314 -321 1530 0
-1494 -2196 -341 0
-1494 -2196 -1627 0
-1494 -2196 -1794 0
-1494 -2196 -1935 0
-1494 -2196 126 -1627 0
-1494 -2196 -126 1627 0
-1494 -2196 1407 -1935 0
-1494 -2196 -1407 1935 0
-1494 -2196 1107 -341 0
-1494 -2196 -1107 341 0
-1494 -2196 1162 -1794 0
-1494 -2196 -1162 1794 0
-1494 2196 548 0
-1494 2196 1787 0
-1494 2196 575 0
-1494 2196 748 0
-1494 2196 126 -1787 0
-1494 2196 -126 1787 0
-1494 2196 1407 -748 0
-1494 2196 -1407 748 0
-1494 2196 1107 -548 0
-1494 2196 -1107 548 0
-1494 2196 1162 -575 0
-1494 2196 -1162 575 0
-1494 2014 0
-1494 85 -126 0
-1494 -85 126 0
-1494 2224 -1407 0
-1494 -2224 1407 0
-1494 1149 -1107 0
-1494 -1149 1107 0
-1494 1002 -1162 0
-1494 -1002 1162 0
1494 -641 -1733 0
1494 -641 -728 0
1494 -641 1522 0
1494 -641 1215 0
1494 -641 1759 -728 0
1494 -641 -1759 728 0
1494 -641 1413 -1215 0
1494 -641 -1413 1215 0
1494 -641 436 -1733 0
1494 -641 -436 1733 0
1494 -641 570 -1522 0
1494 -641 -570 1522 0
1494 641 1824 0
1494 641 1917 0
1494 641 -1866 0
1494 641 -2352 0
1494 641 1759 -1917 0
1494 641 -1759 1917 0
1494 641 1413 -2352 0
1494 641 -1413 2352 0
1494 641 436 -1824 0
1494 641 -436 1824 0
1494 641 570 -1866 0
1494 641 -570 1866 0
1494 1853 0
1494 85 -1759 0
1494 -85 1759 0
1494 2224 -1413 0
1494 -2224 1413 0
1494 1149 -436 0
1494 -1149 436 0
1494 1002 -570 0
1494 -1002 570 0
-281 -461 -868 0
-281 -461 -2342 0
-281 -461 -737 0
-281 -461 -94 0
-281 -461 1782 -2342 0
-281 -461 -1782 2342 0
-281 -461 2315 -94 0
-281 -461 -2315 94 0
-281 -461 337 -868 0
-281 -461 -337 868 0
-281 -461 1371 -737 0
-281 -461 -1371 737 0
-281 461 1542 0
-281 461 1311 0
-281 461 727 0
-281 461 163 0
-281 461 1782 -1311 0
-281 461 -1782 1311 0
-281 461 2315 -163 0
-281 461 -2315 163 0
-281 461 337 -1542 0
-281 461 -337 1542 0
-281 461 1371 -727 0
-281 461 -1371 727 0
-281 173 0
-281 2177 -1782 0
-281 -2177 1782 0
-281 1195 -2315 0
-281 -1195 2315 0
-281 1779 -337 0
-281 -1779 337 0
-281 2418 -1371 0
-281 -2418 1371 0
281 -2238 -2393 0
281 -2238 -74 0
281 -2238 1244 0
281 -2238 1839 0
281 -2238 794 -74 0
281 -2238 -794 74 0
281 -2238 1575 -1839 0
281 -2238 -1575 1839 0
281 -2238 116 -2393 0
281 -2238 -116 2393 0
281 -2238 947 -1244 0
281 -2238 -947 1244 0
281 2238 1883 0
281 2238 2213 0
281 2238 -1885 0
281 2238 -1326 0
281 2238 794 -2213 0
281 2238 -794 2213 0
281 2238 1575 -1326 0
281 2238 -1575 1326 0
281 2238 116 -1883 0
281 2238 -116 1883 0
281 2238 947 -1885 0
281 2238 -947 1885 0
281 1561 0
281 2177 -794 0
281 -2177 794 0
281 1195 -1575 0
281 -1195 1575 0
281 1779 -116 0
281 -1779 116 0
281 2418 -947 0
281 -2418 947 0
-779 -652 -1416 0
-779 -652 -1923 0
-779 -652 -253 0
-779 -652 -2072 0
-779 -652 1027 -1923 0
-779 -652 -1027 1923 0
-779 -652 1268 -2072 0
-779 -652 -1268 2072 0
-779 -652 1186 -1416 0
-779 -652 -1186 1416 0
-779 -652 1258 -253 0
-779 -652 -1258 253 0
-779 652 1433 0
-779 652 249 0
-779 652 1629 0
-779 652 1465 0
-779 652 1027 -249 0
-779 652 -1027 249 0
-779 652 1268 -1465 0
-779 652 -1268 1465 0
-779 652 1186 -1433 0
-779 652 -1186 1433 0
-779 652 1258 -1629 0
-779 652 -1258 1629 0
-779 1378 0
-779 2401 -1027 0
-779 -2401 1027 0
-779 54 -1268 0
-779 -54 1268 0
-779 2177 -1186 0
-779 -2177 1186 0
-779 1527 -1258 0
-779 -1527 1258 0
779 -1577 -413 0
779 -1577 -2320 0
779 -1577 48 0
779 -1577 759 0
779 -1577 196 -2320 0
779 -1577 -196 2320 0
779 -1577 875 -759 0
779 -1577 -875 759 0
779 -1577 1210 -413 0
779 -1577 -1210 413 0
779 -1577 798 -48 0
779 -1577 -798 48 0
779 1577 168 0
779 1577 550 0
779 1577 -1819 0
779 1577 -329 0
779 1577 196 -550 0
779 1577 -196 550 0
779 1577 875 -329 0
779 1577 -875 329 0
779 1577 1210 -168 0
779 1577 -1210 168 0
779 1577 798 -1819 0
779 1577 -798 1819 0
779 2151 0
779 2401 -196 0
779 -2401 196 0
779 54 -875 0
779 -54 875 0
779 2177 -1210 0
779 -2177 1210 0
779 1527 -798 0
779 -1527 798 0
-2153 -1570 -690 0
-2153 -1570 -681 0
-2153 -1570 -1237 0
-2153 -1570 -1438 0
-2153 -1570 1389 -681 0
-2153 -1570 -1389 681 0
-2153 -1570 1078 -1438 0
-2153 -1570 -1078 1438 0
-2153 -1570 2208 -690 0
-2153 -1570 -2208 690 0
-2153 -1570 761 -1237 0
-2153 -1570 -761 1237 0
-2153 1570 562 0
-2153 1570 1686 0
-2153 1570 1036 0
-2153 1570 842 0
-2153 1570 1389 -1686 0
-2153 1570 -1389 1686 0
-2153 1570 1078 -842 0
-2153 1570 -1078 842 0
-2153 1570 2208 -562 0
-2153 1570 -2208 562 0
-2153 1570 761 -1036 0
-2153 1570 -761 1036 0
-2153 1654 0
-2153 617 -1389 0
-2153 -617 1389 0
-2153 762 -1078 0
-2153 -762 1078 0
-2153 2401 -2208 0
-2153 -2401 2208 0
-2153 1042 -761 0
-2153 -1042 761 0
2153 -970 -16 0
2153 -970 -640 0
2153 -970 2409 0
2153 -970 1273 0
2153 -970 45 -640 0
2153 -970 -45 640 0
2153 -970 2170 -1273 0
2153 -970 -2170 1273 0
2153 -970 2319 -16 0
2153 -970 -2319 16 0
2153 -970 1026 -2409 0
2153 -970 -1026 2409 0
2153 970 2262 0
2153 970 1621 0
2153 970 -2084 0
2153 970 -9 0
2153 970 45 -1621 0
2153 970 -45 1621 0
2153 970 2170 -9 0
2153 970 -2170 9 0
2153 970 2319 -2262 0
2153 970 -2319 2262 0
2153 970 1026 -2084 0
2153 970 -1026 2084 0
2153 2214 0
2153 617 -45 0
2153 -617 45 0
2153 762 -2170 0
2153 -762 2170 0
2153 2401 -2319 0
2153 -2401 2319 0
2153 1042 -1026 0
2153 -1042 1026 0
-1969 -1508 -525 0
-1969 -1508 -838 0
-1969 -1508 -435 0
-1969 -1508 -2257 0
-1969 -1508 1000 -838 0
-1969 -1508 -1000 838 0
-1969 -1508 2229 -2257 0
-1969 -1508 -2229 2257 0
-1969 -1508 1826 -525 0
-1969 -1508 -1826 525 0
-1969 -1508 600 -435 0
-1969 -1508 -600 435 0
-1969 1508 808 0
-1969 1508 898 0
-1969 1508 318 0
-1969 1508 47 0
-1969 1508 1000 -898 0
-1969 1508 -1000 898 0
-1969 1508 2229 -47 0
-1969 1508 -2229 47 0
-1969 1508 1826 -808 0
-1969 1508 -1826 808 0
-1969 1508 600 -318 0
-1969 1508 -600 318 0
-1969 957 0
-1969 76 -1000 0
-1969 -76 1000 0
-1969 1261 -2229 0
-1969 -1261 2229 0
-1969 1532 -1826 0
-1969 -1532 1826 0
-1969 2138 -600 0
-1969 -2138 600 0
1969 -971 -612 0
1969 -971 -1877 0
1969 -971 602 0
1969 -971 287 0
1969 -971 1483 -1877 0
1969 -971 -1483 1877 0
1969 -971 1658 -287 0
1969 -971 -1658 287 0
1969 -971 2410 -612 0
1969 -971 -2410 612 0
1969 -971 483 -602 0
1969 -971 -483 602 0
1969 971 771 0
1969 971 1274 0
1969 971 -1175 0
1969 971 -751 0
1969 971 1483 -1274 0
1969 971 -1483 1274 0
1969 971 1658 -751 0
1969 971 -1658 751 0
1969 971 2410 -771 0
1969 971 -2410 771 0
1969 971 483 -1175 0
1969 971 -483 1175 0
1969 719 0
1969 76 -1483 0
1969 -76 1483 0
1969 1261 -1658 0
1969 -1261 1658 0
1969 1532 -2410 0
1969 -1532 2410 0
1969 2138 -483 0
1969 -2138 483 0
-26 -189 -1944 0
-26 -189 -2283 0
-26 -189 -1127 0
-26 -189 -1290 0
-26 -189 454 -2283 0
-26 -189 -454 2283 0
-26 -189 1251 -1290 0
-26 -189 -1251 1290 0
-26 -189 1729 -1944 0
-26 -189 -1729 1944 0
-26 -189 343 -1127 0
-26 -189 -343 1127 0
-26 189 2235 0
-26 189 2282 0
-26 189 2299 0
-26 189 1676 0
-26 189 454 -2282 0
-26 189 -454 2282 0
-26 189 1251 -1676 0
-26 189 -1251 1676 0
-26 189 1729 -2235 0
-26 189 -1729 2235 0
-26 189 343 -2299 0
-26 189 -343 2299 0
-26 310 0
-26 1667 -454 0
-26 -1667 454 0
-26 1432 -1251 0
-26 -1432 1251 0
-26 76 -1729 0
-26 -76 1729 0
-26 1119 -343 0
-26 -1119 343 0
26 -1408 -428 0
26 -1408 -2158 0
26 -1408 2029 0
26 -1408 1198 0
26 -1408 687 -2158 0
26 -1408 -687 2158 0
26 -1408 975 -1198 0
26 -1408 -975 1198 0
26 -1408 1115 -428 0
26 -1408 -1115 428 0
26 -1408 1417 -2029 0
26 -1408 -1417 2029 0
26 1408 1927 0
26 1408 2203 0
26 1408 -388 0
26 1408 -2025 0
26 1408 687 -2203 0
26 1408 -687 2203 0
26 1408 975 -2025 0
26 1408 -975 2025 0
26 1408 1115 -1927 0
26 1408 -1115 1927 0
26 1408 1417 -388 0
26 1408 -1417 388 0
26 1900 0
26 1667 -687 0
26 -1667 687 0
26 1432 -975 0
26 -1432 975 0
26 76 -1115 0
26 -76 1115 0
26 1119 -1417 0
26 -1119 1417 0
-521 -1422 -2329 0
-521 -1422 -1217 0
-521 -1422 -2365 0
-521 -1422 -1867 0
-521 -1422 30 -1217 0
-521 -1422 -30 1217 0
-521 -1422 398 -1867 0
-521 -1422 -398 1867 0
-521 -1422 1638 -2329 0
-521 -1422 -1638 2329 0
-521 -1422 2179 -2365 0
-521 -1422 -2179 2365 0
-521 1422 1936 0
-521 1422 1579 0
-521 1422 805 0
-521 1422 1375 0
-521 1422 30 -1579 0
-521 1422 -30 1579 0
-521 1422 398 -1375 0
-521 1422 -398 1375 0
-521 1422 1638 -1936 0
-521 1422 -1638 1936 0
-521 1422 2179 -805 0
-521 1422 -2179 805 0
-521 1112 0
-521 1523 -30 0
-521 -1523 30 0
-521 1357 -398 0
-521 -1357 398 0
-521 1667 -1638 0
-521 -1667 1638 0
-521 762 -2179 0
-521 -762 2179 0
521 -2226 -232 0
521 -2226 -2259 0
521 -2226 903 0
521 -2226 1765 0
521 -2226 694 -2259 0
521 -2226 -694 2259 0
521 -2226 1383 -1765 0
521 -2226 -1383 1765 0
521 -2226 934 -232 0
521 -2226 -934 232 0
521 -2226 896 -903 0
521 -2226 -896 903 0
521 2226 2345 0
521 2226 1731 0
521 2226 -2357 0
521 2226 -2332 0
521 2226 694 -1731 0
521 2226 -694 1731 0
521 2226 1383 -2332 0
521 2226 -1383 2332 0
521 2226 934 -2345 0
521 2226 -934 2345 0
521 2226 896 -2357 0
521 2226 -896 2357 0
521 1143 0
521 1523 -694 0
521 -1523 694 0
521 1357 -1383 0
521 -1357 1383 0
521 1667 -934 0
521 -1667 934 0
521 762 -896 0
521 -762 896 0
-1342 -1015 -1876 0
-1342 -1015 -768 0
-1342 -1015 -2085 0
-1342 -1015 -156 0
-1342 -1015 1990 -768 0
-1342 -1015 -1990 768 0
-1342 -1015 296 -156 0
-1342 -1015 -296 156 0
-1342 -1015 1845 -1876 0
-1342 -1015 -1845 1876 0
-1342 -1015 130 -2085 0
-1342 -1015 -130 2085 0
-1342 1015 2088 0
-1342 1015 1337 0
-1342 1015 349 0
-1342 1015 588 0
-1342 1015 1990 -1337 0
-1342 1015 -1990 1337 0
-1342 1015 296 -588 0
-1342 1015 -296 588 0
-1342 1015 1845 -2088 0
-1342 1015 -1845 2088 0
-1342 1015 130 -349 0
-1342 1015 -130 349 0
-1342 542 0
-1342 2330 -1990 0
-1342 -2330 1990 0
-1342 1468 -296 0
-1342 -1468 296 0
-1342 1523 -1845 0
-1342 -1523 1845 0
-1342 1291 -130 0
-1342 -1291 130 0
1342 -723 -2175 0
1342 -723 -1182 0
1342 -723 1623 0
1342 -723 2201 0
1342 -723 1455 -1182 0
1342 -723 -1455 1182 0
1342 -723 999 -2201 0
1342 -723 -999 2201 0
1342 -723 2197 -2175 0
1342 -723 -2197 2175 0
1342 -723 677 -1623 0
1342 -723 -677 1623 0
1342 723 2370 0
1342 723 1266 0
1342 723 -676 0
1342 723 -105 0
1342 723 1455 -1266 0
1342 723 -1455 1266 0
1342 723 999 -105 0
1342 723 -999 105 0
1342 723 2197 -2370 0
1342 723 -2197 2370 0
1342 723 677 -676 0
1342 723 -677 676 0
1342 1618 0
1342 2330 -1455 0
1342 -2330 1455 0
1342 1468 -999 0
1342 -1468 999 0
1342 1523 -2197 0
1342 -1523 2197 0
1342 1291 -677 0
1342 -1291 677 0
-657 -2109 -1898 0
-657 -2109 -1470 0
-657 -2109 -1524 0
-657 -2109 -40 0
-657 -2109 1926 -1470 0
-657 -2109 -1926 1470 0
-657 -2109 2220 -40 0
-657 -2109 -2220 40 0
-657 -2109 1415 -1898 0
-657 -2109 -1415 1898 0
-657 -2109 110 -1524 0
-657 -2109 -110 1524 0
-657 2109 554 0
-657 2109 188 0
-657 2109 1916 0
-657 2109 1644 0
-657 2109 1926 -188 0
-657 2109 -1926 188 0
-657 2109 2220 -1644 0
-657 2109 -2220 1644 0
-657 2109 1415 -554 0
-657 2109 -1415 554 0
-657 2109 110 -1916 0
-657 2109 -110 1916 0
-657 1892 0
-657 1191 -1926 0
-657 -1191 1926 0
-657 978 -2220 0
-657 -978 2220 0
-657 2330 -1415 0
-657 -2330 1415 0
-657 1418 -110 0
-657 -1418 110 0
657 -2312 -1963 0
657 -2312 -1070 0
657 -2312 192 0
657 -2312 803 0
657 -2312 220 -1070 0
657 -2312 -220 1070 0
657 -2312 1050 -803 0
657 -2312 -1050 803 0
657 -2312 942 -1963 0
657 -2312 -942 1963 0
657 -2312 13 -192 0
657 -2312 -13 192 0
657 2312 240 0
657 2312 1243 0
657 2312 -2372 0
657 2312 -2400 0
657 2312 220 -1243 0
657 2312 -220 1243 0
657 2312 1050 -2400 0
657 2312 -1050 2400 0
657 2312 942 -240 0
657 2312 -942 240 0
657 2312 13 -2372 0
657 2312 -13 2372 0
657 309 0
657 1191 -220 0
657 -1191 220 0
657 978 -1050 0
657 -978 1050 0
657 2330 -942 0
657 -2330 942 0
657 1418 -13 0
657 -1418 13 0
-1056 -181 -791 0
-1056 -181 -1778 0
-1056 -181 -593 0
-1056 -181 -1202 0
-1056 -181 1595 -1778 0
-1056 -181 -1595 1778 0
-1056 -181 1213 -1202 0
-1056 -181 -1213 1202 0
-1056 -181 1626 -791 0
-1056 -181 -1626 791 0
-1056 -181 1913 -593 0
-1056 -181 -1913 593 0
-1056 181 1094 0
-1056 181 2032 0
-1056 181 2338 0
-1056 181 2276 0
-1056 181 1595 -2032 0
-1056 181 -1595 2032 0
-1056 181 1213 -2276 0
-1056 181 -1213 2276 0
-1056 181 1626 -1094 0
-1056 181 -1626 1094 0
-1056 181 1913 -2338 0
-1056 181 -1913 2338 0
-1056 2079 0
-1056 718 -1595 0
-1056 -718 1595 0
-1056 1711 -1213 0
-1056 -1711 1213 0
-1056 54 -1626 0
-1056 -54 1626 0
-1056 2006 -1913 0
-1056 -2006 1913 0
1056 -90 -1526 0
1056 -90 -103 0
1056 -90 41 0
1056 -90 2423 0
1056 -90 175 -103 0
1056 -90 -175 103 0
1056 -90 856 -2423 0
1056 -90 -856 2423 0
1056 -90 1762 -1526 0
1056 -90 -1762 1526 0
1056 -90 1611 -41 0
1056 -90 -1611 41 0
1056 90 34 0
1056 90 1538 0
1056 90 -305 0
1056 90 -1792 0
1056 90 175 -1538 0
1056 90 -175 1538 0
1056 90 856 -1792 0
1056 90 -856 1792 0
1056 90 1762 -34 0
1056 90 -1762 34 0
1056 90 1611 -305 0
1056 90 -1611 305 0
1056 308 0
1056 718 -175 0
1056 -718 175 0
1056 1711 -856 0
1056 -1711 856 0
1056 54 -1762 0
1056 -54 1762 0
1056 2006 -1611 0
1056 -2006 1611 0
-68 -793 -2065 0
-68 -793 -79 0
-68 -793 -1624 0
-68 -793 -1076 0
-68 -793 990 -79 0
-68 -793 -990 79 0
-68 -793 414 -1076 0
-68 -793 -414 1076 0
-68 -793 573 -2065 0
-68 -793 -573 2065 0
-68 -793 1132 -1624 0
-68 -793 -1132 1624 0
-68 793 1100 0
-68 793 2076 0
-68 793 1073 0
-68 793 1281 0
-68 793 990 -2076 0
-68 793 -990 2076 0
-68 793 414 -1281 0
-68 793 -414 1281 0
-68 793 573 -1100 0
-68 793 -573 1100 0
-68 793 1132 -1073 0
-68 793 -1132 1073 0
-68 2117 0
-68 1131 -990 0
-68 -1131 990 0
-68 1848 -414 0
-68 -1848 414 0
-68 718 -573 0
-68 -718 573 0
-68 2070 -1132 0
-68 -2070 1132 0
68 -535 -438 0
68 -535 -1031 0
68 -535 1091 0
68 -535 1478 0
68 -535 2011 -1031 0
68 -535 -2011 1031 0
68 -535 1690 -1478 0
68 -535 -1690 1478 0
68 -535 171 -438 0
68 -535 -171 438 0
68 -535 827 -1091 0
68 -535 -827 1091 0
68 535 1807 0
68 535 1704 0
68 535 -2265 0
68 535 -994 0
68 535 2011 -1704 0
68 535 -2011 1704 0
68 535 1690 -994 0
68 535 -1690 994 0
68 535 171 -1807 0
68 535 -171 1807 0
68 535 827 -2265 0
68 535 -827 2265 0
68 1934 0
68 1131 -2011 0
68 -1131 2011 0
68 1848 -1690 0
68 -1848 1690 0
68 718 -171 0
68 -718 171 0
68 2070 -827 0
68 -2070 827 0
-882 -1994 -1216 0
-882 -1994 -404 0
-882 -1994 -1919 0
-882 -1994 -1521 0
-882 -1994 2253 -404 0
-882 -1994 -2253 404 0
-882 -1994 1399 -1521 0
-882 -1994 -1399 1521 0
-882 -1994 2239 -1216 0
-882 -1994 -2239 1216 0
-882 -1994 2305 -1919 0
-882 -1994 -2305 1919 0
-882 1994 2218 0
-882 1994 2050 0
-882 1994 493 0
-882 1994 4 0
-882 1994 2253 -2050 0
-882 1994 -2253 2050 0
-882 1994 1399 -4 0
-882 1994 -1399 4 0
-882 1994 2239 -2218 0
-882 1994 -2239 2218 0
-882 1994 2305 -493 0
-882 1994 -2305 493 0
-882 214 0
-882 159 -2253 0
-882 -159 2253 0
-882 1637 -1399 0
-882 -1637 1399 0
-882 1131 -2239 0
-882 -1131 2239 0
-882 1265 -2305 0
-882 -1265 2305 0
882 -1386 -1740 0
882 -1386 -95 0
882 -1386 2406 0
882 -1386 664 0
882 -1386 1223 -95 0
882 -1386 -1223 95 0
882 -1386 1531 -664 0
882 -1386 -1531 664 0
882 -1386 1589 -1740 0
882 -1386 -1589 1740 0
882 -1386 1863 -2406 0
882 -1386 -1863 2406 0
882 1386 533 0
882 1386 226 0
882 1386 -57 0
882 1386 -59 0
882 1386 1223 -226 0
882 1386 -1223 226 0
882 1386 1531 -59 0
882 1386 -1531 59 0
882 1386 1589 -533 0
882 1386 -1589 533 0
882 1386 1863 -57 0
882 1386 -1863 57 0
882 1239 0
882 159 -1223 0
882 -159 1223 0
882 1637 -1531 0
882 -1637 1531 0
882 1131 -1589 0
882 -1131 1589 0
882 1265 -1863 0
882 -1265 1863 0
-778 -557 -64 0
-778 -557 -750 0
-778 -557 -2322 0
-778 -557 -323 0
-778 -557 1481 -750 0
-778 -557 -1481 750 0
-778 -557 1582 -323 0
-778 -557 -1582 323 0
-778 -557 1338 -64 0
-778 -557 -1338 64 0
-778 -557 1185 -2322 0
-778 -557 -1185 2322 0
-778 557 2005 0
-778 557 39 0
-778 557 1679 0
-778 557 2334 0
-778 557 1481 -39 0
-778 557 -1481 39 0
-778 557 1582 -2334 0
-778 557 -1582 2334 0
-778 557 1338 -2005 0
-778 557 -1338 2005 0
-778 557 1185 -1679 0
-778 557 -1185 1679 0
-778 611 0
-778 606 -1481 0
-778 -606 1481 0
-778 1945 -1582 0
-778 -1945 1582 0
-778 159 -1338 0
-778 -159 1338 0
-778 1699 -1185 0
-778 -1699 1185 0
778 -979 -277 0
778 -979 -10 0
778 -979 2412 0
778 -979 2044 0
778 -979 1757 -10 0
778 -979 -1757 10 0
778 -979 954 -2044 0
778 -979 -954 2044 0
778 -979 1753 -277 0
778 -979 -1753 277 0
778 -979 491 -2412 0
778 -979 -491 2412 0
778 979 1327 0
778 979 1147 0
778 979 -1795 0
778 979 -1242 0
778 979 1757 -1147 0
778 979 -1757 1147 0
778 979 954 -1242 0
778 979 -954 1242 0
778 979 1753 -1327 0
778 979 -1753 1327 0
778 979 491 -1795 0
778 979 -491 1795 0
778 1537 0
778 606 -1757 0
778 -606 1757 0
778 1945 -954 0
778 -1945 954 0
778 159 -1753 0
778 -159 1753 0
778 1699 -491 0
778 -1699 491 0
-1214 -2198 -257 0
-1214 -2198 -1513 0
-1214 -2198 -700 0
-1214 -2198 -324 0
-1214 -2198 633 -1513 0
-1214 -2198 -633 1513 0
-1214 -2198 136 -324 0
-1214 -2198 -136 324 0
-1214 -2198 899 -257 0
-1214 -2198 -899 257 0
-1214 -2198 974 -700 0
-1214 -2198 -974 700 0
-1214 2198 1670 0
-1214 2198 114 0
-1214 2198 2241 0
-1214 2198 801 0
-1214 2198 633 -114 0
-1214 2198 -633 114 0
-1214 2198 136 -801 0
-1214 2198 -136 801 0
-1214 2198 899 -1670 0
-1214 2198 -899 1670 0
-1214 2198 974 -2241 0
-1214 2198 -974 2241 0
-1214 1344 0
-1214 482 -633 0
-1214 -482 633 0
-1214 561 -136 0
-1214 -561 136 0
-1214 606 -899 0
-1214 -606 899 0
-1214 1632 -974 0
-1214 -1632 974 0
1214 -28 -1209 0
1214 -28 -1064 0
1214 -28 1499 0
1214 -28 229 0
1214 -28 507 -1064 0
1214 -28 -507 1064 0
1214 -28 1510 -229 0
1214 -28 -1510 229 0
1214 -28 372 -1209 0
1214 -28 -372 1209 0
1214 -28 703 -1499 0
1214 -28 -703 1499 0
1214 28 1813 0
1214 28 1803 0
1214 28 -2142 0
1214 28 -259 0
1214 28 507 -1803 0
1214 28 -507 1803 0
1214 28 1510 -259 0
1214 28 -1510 259 0
1214 28 372 -1813 0
1214 28 -372 1813 0
1214 28 703 -2142 0
1214 28 -703 2142 0
1214 941 0
1214 482 -507 0
1214 -482 507 0
1214 561 -1510 0
1214 -561 1510 0
1214 606 -372 0
1214 -606 372 0
1214 1632 -703 0
1214 -1632 703 0
-1232 -892 -1390 0
-1232 -892 -620 0
-1232 -892 -666 0
-1232 -892 -1880 0
-1232 -892 997 -620 0
-1232 -892 -997 620 0
-1232 -892 2325 -1880 0
-1232 -892 -2325 1880 0
-1232 -892 864 -1390 0
-1232 -892 -864 1390 0
-1232 -892 1743 -666 0
-1232 -892 -1743 666 0
-1232 892 586 0
-1232 892 2383 0
-1232 892 29 0
-1232 892 477 0
-1232 892 997 -2383 0
-1232 892 -997 2383 0
-1232 892 2325 -477 0
-1232 892 -2325 477 0
-1232 892 864 -586 0
-1232 892 -864 586 0
-1232 892 1743 -29 0
-1232 892 -1743 29 0
-1232 1328 0
-1232 523 -997 0
-1232 -523 997 0
-1232 1395 -2325 0
-1232 -1395 2325 0
-1232 1711 -864 0
-1232 -1711 864 0
-1232 584 -1743 0
-1232 -584 1743 0
1232 -662 -272 0
1232 -662 -816 0
1232 -662 1660 0
1232 -662 2186 0
1232 -662 530 -816 0
1232 -662 -530 816 0
1232 -662 61 -2186 0
1232 -662 -61 2186 0
1232 -662 1410 -272 0
1232 -662 -1410 272 0
1232 -662 1771 -1660 0
1232 -662 -1771 1660 0
1232 662 251 0
1232 662 2 0
1232 662 -2396 0
1232 662 -1246 0
1232 662 530 -2 0
1232 662 -530 2 0
1232 662 61 -1246 0
1232 662 -61 1246 0
1232 662 1410 -251 0
1232 662 -1410 251 0
1232 662 1771 -2396 0
1232 662 -1771 2396 0
1232 1111 0
1232 523 -530 0
1232 -523 530 0
1232 1395 -61 0
1232 -1395 61 0
1232 1711 -1410 0
1232 -1711 1410 0
1232 584 -1771 0
1232 -584 1771 0
-248 -647 -1288 0
-248 -647 -2331 0
-248 -647 -1350 0
-248 -647 -1083 0
-248 -647 2228 -2331 0
-248 -647 -2228 2331 0
-248 -647 547 -1083 0
-248 -647 -547 1083 0
-248 -647 18 -1288 0
-248 -647 -18 1288 0
-248 -647 2174 -1350 0
-248 -647 -2174 1350 0
-248 647 1904 0
-248 647 843 0
-248 647 2129 0
-248 647 2246 0
-248 647 2228 -843 0
-248 647 -2228 843 0
-248 647 547 -2246 0
-248 647 -547 2246 0
-248 647 18 -1904 0
-248 647 -18 1904 0
-248 647 2174 -2129 0
-248 647 -2174 2129 0
-248 527 0
-248 1554 -2228 0
-248 -1554 2228 0
-248 1474 -547 0
-248 -1474 547 0
-248 523 -18 0
-248 -523 18 0
-248 989 -2174 0
-248 -989 2174 0
248 -988 -1385 0
248 -988 -2140 0
248 -988 1511 0
248 -988 519 0
248 -988 675 -2140 0
248 -988 -675 2140 0
248 -988 184 -519 0
248 -988 -184 519 0
248 -988 500 -1385 0
248 -988 -500 1385 0
248 -988 207 -1511 0
248 -988 -207 1511 0
248 988 1096 0
248 988 448 0
248 988 -2255 0
248 988 -1902 0
248 988 675 -448 0
248 988 -675 448 0
248 988 184 -1902 0
248 988 -184 1902 0
248 988 500 -1096 0
248 988 -500 1096 0
248 988 207 -2255 0
248 988 -207 2255 0
248 2260 0
248 1554 -675 0
248 -1554 675 0
248 1474 -184 0
248 -1474 184 0
248 523 -500 0
248 -523 500 0
248 989 -207 0
248 -989 207 0
-1958 -753 -2364 0
-1958 -753 -205 0
-1958 -753 -2178 0
-1958 -753 -932 0
-1958 -753 2127 -205 0
-1958 -753 -2127 205 0
-1958 -753 1713 -932 0
-1958 -753 -1713 932 0
-1958 -753 1146 -2364 0
-1958 -753 -1146 2364 0
-1958 -753 1735 -2178 0
-1958 -753 -1735 2178 0
-1958 753 1615 0
-1958 753 2360 0
-1958 753 650 0
-1958 753 2017 0
-1958 753 2127 -2360 0
-1958 753 -2127 2360 0
-1958 753 1713 -2017 0
-1958 753 -1713 2017 0
-1958 753 1146 -1615 0
-1958 753 -1146 1615 0
-1958 753 1735 -650 0
-1958 753 -1735 650 0
-1958 2116 0
-1958 609 -2127 0
-1958 -609 2127 0
-1958 1082 -1713 0
-1958 -1082 1713 0
-1958 1554 -1146 0
-1958 -1554 1146 0
-1958 1357 -1735 0
-1958 -1357 1735 0
1958 -572 -1591 0
1958 -572 -2308 0
1958 -572 333 0
1958 -572 2132 0
1958 -572 1957 -2308 0
1958 -572 -1957 2308 0
1958 -572 1069 -2132 0
1958 -572 -1069 2132 0
1958 -572 69 -1591 0
1958 -572 -69 1591 0
1958 -572 228 -333 0
1958 -572 -228 333 0
1958 572 2037 0
1958 572 539 0
1958 572 -1309 0
1958 572 -1993 0
1958 572 1957 -539 0
1958 572 -1957 539 0
1958 572 1069 -1993 0
1958 572 -1069 1993 0
1958 572 69 -2037 0
1958 572 -69 2037 0
1958 572 228 -1309 0
1958 572 -228 1309 0
1958 1677 0
1958 609 -1957 0
1958 -609 1957 0
1958 1082 -1069 0
1958 -1082 1069 0
1958 1554 -69 0
1958 -1554 69 0
1958 1357 -228 0
1958 -1357 228 0
-11 -2000 -1189 0
-11 -2000 -1028 0
-11 -2000 -1557 0
-11 -2000 -568 0
-11 -2000 884 -1028 0
-11 -2000 -884 1028 0
-11 -2000 1675 -568 0
-11 -2000 -1675 568 0
-11 -2000 595 -1189 0
-11 -2000 -595 1189 0
-11 -2000 1142 -1557 0
-11 -2000 -1142 1557 0
-11 2000 770 0
-11 2000 2303 0
-11 2000 1179 0
-11 2000 1791 0
-11 2000 884 -2303 0
-11 2000 -884 2303 0
-11 2000 1675 -1791 0
-11 2000 -1675 1791 0
-11 2000 595 -770 0
-11 2000 -595 770 0
-11 2000 1142 -1179 0
-11 2000 -1142 1179 0
-11 1732 0
-11 2021 -884 0
-11 -2021 884 0
-11 1808 -1675 0
-11 -1808 1675 0
-11 1261 -595 0
-11 -1261 595 0
-11 1432 -1142 0
-11 -1432 1142 0
11 -991 -625 0
11 -991 -1600 0
11 -991 577 0
11 -991 2404 0
11 -991 673 -1600 0
11 -991 -673 1600 0
11 -991 275 -2404 0
11 -991 -275 2404 0
11 -991 2318 -625 0
11 -991 -2318 625 0
11 -991 200 -577 0
11 -991 -200 577 0
11 991 1868 0
11 991 825 0
11 991 -1453 0
11 991 -425 0
11 991 673 -825 0
11 991 -673 825 0
11 991 275 -425 0
11 991 -275 425 0
11 991 2318 -1868 0
11 991 -2318 1868 0
11 991 200 -1453 0
11 991 -200 1453 0
11 522 0
11 2021 -673 0
11 -2021 673 0
11 1808 -275 0
11 -1808 275 0
11 1261 -2318 0
11 -1261 2318 0
11 1432 -200 0
11 -1432 200 0
-1126 -1547 -1010 0
-1126 -1547 -1369 0
-1126 -1547 -1908 0
-1126 -1547 -517 0
-1126 -1547 1467 -1369 0
-1126 -1547 -1467 1369 0
-1126 -1547 1397 -517 0
-1126 -1547 -1397 517 0
-1126 -1547 870 -1010 0
-1126 -1547 -870 1010 0
-1126 -1547 874 -1908 0
-1126 -1547 -874 1908 0
-1126 1547 824 0
-1126 1547 2047 0
-1126 1547 646 0
-1126 1547 371 0
-1126 1547 1467 -2047 0
-1126 1547 -1467 2047 0
-1126 1547 1397 -371 0
-1126 1547 -1397 371 0
-1126 1547 870 -824 0
-1126 1547 -870 824 0
-1126 1547 874 -646 0
-1126 1547 -874 646 0
-1126 679 0
-1126 1457 -1467 0
-1126 -1457 1467 0
-1126 1828 -1397 0
-1126 -1828 1397 0
-1126 2021 -870 0
-1126 -2021 870 0
-1126 1474 -874 0
-1126 -1474 874 0
1126 -829 -582 0
1126 -829 -2420 0
1126 -829 709 0
1126 -829 1534 0
1126 -829 451 -2420 0
1126 -829 -451 2420 0
1126 -829 378 -1534 0
1126 -829 -378 1534 0
1126 -829 1897 -582 0
1126 -829 -1897 582 0
1126 -829 897 -709 0
1126 -829 -897 709 0
1126 829 1047 0
1126 829 1728 0
1126 829 -1391 0
1126 829 -2058 0
1126 829 451 -1728 0
1126 829 -451 1728 0
1126 829 378 -2058 0
1126 829 -378 2058 0
1126 829 1897 -1047 0
1126 829 -1897 1047 0
1126 829 897 -1391 0
1126 829 -897 1391 0
1126 1201 0
1126 1457 -451 0
1126 -1457 451 0
1126 1828 -378 0
1126 -1828 378 0
1126 2021 -1897 0
1126 -2021 1897 0
1126 1474 -897 0
1126 -1474 897 0
-2022 -1029 -1772 0
-2022 -1029 -1889 0
-2022 -1029 -444 0
-2022 -1029 -1459 0
-2022 -1029 1790 -1889 0
-2022 -1029 -1790 1889 0
-2022 -1029 509 -1459 0
-2022 -1029 -509 1459 0
-2022 -1029 1180 -1772 0
-2022 -1029 -1180 1772 0
-2022 -1029 2169 -444 0
-2022 -1029 -2169 444 0
-2022 1029 1831 0
-2022 1029 1307 0
-2022 1029 529 0
-2022 1029 1336 0
-2022 1029 1790 -1307 0
-2022 1029 -1790 1307 0
-2022 1029 509 -1336 0
-2022 1029 -509 1336 0
-2022 1029 1180 -1831 0
-2022 1029 -1180 1831 0
-2022 1029 2169 -529 0
-2022 1029 -2169 529 0
-2022 344 0
-2022 1431 -1790 0
-2022 -1431 1790 0
-2022 2273 -509 0
-2022 -2273 509 0
-2022 1457 -1180 0
-2022 -1457 1180 0
-2022 978 -2169 0
-2022 -978 2169 0
2022 -1509 -1278 0
2022 -1509 -789 0
2022 -1509 1166 0
2022 -1509 599 0
2022 -1509 1698 -789 0
2022 -1509 -1698 789 0
2022 -1509 1436 -599 0
2022 -1509 -1436 599 0
2022 -1509 2232 -1278 0
2022 -1509 -2232 1278 0
2022 -1509 845 -1166 0
2022 -1509 -845 1166 0
2022 1509 1907 0
2022 1509 1856 0
2022 1509 -563 0
2022 1509 -1368 0
2022 1509 1698 -1856 0
2022 1509 -1698 1856 0
2022 1509 1436 -1368 0
2022 1509 -1436 1368 0
2022 1509 2232 -1907 0
2022 1509 -2232 1907 0
2022 1509 845 -563 0
2022 1509 -845 563 0
2022 1799 0
2022 1431 -1698 0
2022 -1431 1698 0
2022 2273 -1436 0
2022 -2273 1436 0
2022 1457 -2232 0
2022 -1457 2232 0
2022 978 -845 0
2022 -978 845 0
-2108 -925 -1170 0
-2108 -925 -871 0
-2108 -925 -246 0
-2108 -925 -938 0
-2108 -925 179 -871 0
-2108 -925 -179 871 0
-2108 -925 2210 -938 0
-2108 -925 -2210 938 0
-2108 -925 581 -1170 0
-2108 -925 -581 1170 0
-2108 -925 2040 -246 0
-2108 -925 -2040 246 0
-2108 925 327 0
-2108 925 1314 0
-2108 925 660 0
-2108 925 590 0
-2108 925 179 -1314 0
-2108 925 -179 1314 0
-2108 925 2210 -590 0
-2108 925 -2210 590 0
-2108 925 581 -327 0
-2108 925 -581 327 0
-2108 925 2040 -660 0
-2108 925 -2040 660 0
-2108 2131 0
-2108 1931 -179 0
-2108 -1931 179 0
-2108 56 -2210 0
-2108 -56 2210 0
-2108 1848 -581 0
-2108 -1848 581 0
-2108 1828 -2040 0
-2108 -1828 2040 0
2108 -1806 -840 0
2108 -1806 -502 0
2108 -1806 592 0
2108 -1806 1567 0
2108 -1806 760 -502 0
2108 -1806 -760 502 0
2108 -1806 876 -1567 0
2108 -1806 -876 1567 0
2108 -1806 356 -840 0
2108 -1806 -356 840 0
2108 -1806 465 -592 0
2108 -1806 -465 592 0
2108 1806 2366 0
2108 1806 729 0
2108 1806 -506 0
2108 1806 -2028 0
2108 1806 760 -729 0
2108 1806 -760 729 0
2108 1806 876 -2028 0
2108 1806 -876 2028 0
2108 1806 356 -2366 0
2108 1806 -356 2366 0
2108 1806 465 -506 0
2108 1806 -465 506 0
2108 642 0
2108 1931 -760 0
2108 -1931 760 0
2108 56 -876 0
2108 -56 876 0
2108 1848 -356 0
2108 -1848 356 0
2108 1828 -465 0
2108 -1828 465 0
-2359 -44 -2128 0
-2359 -44 -294 0
-2359 -44 -931 0
-2359 -44 -311 0
-2359 -44 701 -294 0
-2359 -44 -701 294 0
-2359 -44 1130 -311 0
-2359 -44 -1130 311 0
-2359 -44 198 -2128 0
-2359 -44 -198 2128 0
-2359 -44 212 -931 0
-2359 -44 -212 931 0
-2359 44 1490 0
-2359 44 853 0
-2359 44 1355 0
-2359 44 1723 0
-2359 44 701 -853 0
-2359 44 -701 853 0
-2359 44 1130 -1723 0
-2359 44 -1130 1723 0
-2359 44 198 -1490 0
-2359 44 -198 1490 0
-2359 44 212 -1355 0
-2359 44 -212 1355 0
-2359 1610 0
-2359 1220 -701 0
-2359 -1220 701 0
-2359 1374 -1130 0
-2359 -1374 1130 0
-2359 1225 -198 0
-2359 -1225 198 0
-2359 1894 -212 0
-2359 -1894 212 0
2359 -1558 -480 0
2359 -1558 -1257 0
2359 -1558 2046 0
2359 -1558 767 0
2359 -1558 1777 -1257 0
2359 -1558 -1777 1257 0
2359 -1558 2407 -767 0
2359 -1558 -2407 767 0
2359 -1558 1197 -480 0
2359 -1558 -1197 480 0
2359 -1558 1387 -2046 0
2359 -1558 -1387 2046 0
2359 1558 1678 0
2359 1558 686 0
2359 1558 -672 0
2359 1558 -1861 0
2359 1558 1777 -686 0
2359 1558 -1777 686 0
2359 1558 2407 -1861 0
2359 1558 -2407 1861 0
2359 1558 1197 -1678 0
2359 1558 -1197 1678 0
2359 1558 1387 -672 0
2359 1558 -1387 672 0
2359 2090 0
2359 1220 -1777 0
2359 -1220 1777 0
2359 1374 -2407 0
2359 -1374 2407 0
2359 1225 -1197 0
2359 -1225 1197 0
2359 1894 -1387 0
2359 -1894 1387 0
-1419 -832 -993 0
-1419 -832 -1040 0
-1419 -832 -1381 0
-1419 -832 -1062 0
-1419 -832 2222 -1040 0
-1419 -832 -2222 1040 0
-1419 -832 1628 -1062 0
-1419 -832 -1628 1062 0
-1419 -832 726 -993 0
-1419 -832 -726 993 0
-1419 -832 1840 -1381 0
-1419 -832 -1840 1381 0
-1419 832 302 0
-1419 832 1206 0
-1419 832 1188 0
-1419 832 139 0
-1419 832 2222 -1206 0
-1419 832 -2222 1206 0
-1419 832 1628 -139 0
-1419 832 -1628 139 0
-1419 832 726 -302 0
-1419 832 -726 302 0
-1419 832 1840 -1188 0
-1419 832 -1840 1188 0
-1419 1458 0
-1419 776 -2222 0
-1419 -776 2222 0
-1419 1427 -1628 0
-1419 -1427 1628 0
-1419 1220 -726 0
-1419 -1220 726 0
-1419 2273 -1840 0
-1419 -2273 1840 0
1419 -2048 -823 0
1419 -2048 -1825 0
1419 -2048 2209 0
1419 -2048 147 0
1419 -2048 208 -1825 0
1419 -2048 -208 1825 0
1419 -2048 456 -147 0
1419 -2048 -456 147 0
1419 -2048 471 -823 0
1419 -2048 -471 823 0
1419 -2048 32 -2209 0
1419 -2048 -32 2209 0
1419 2048 800 0
1419 2048 2429 0
1419 2048 -2144 0
1419 2048 -1507 0
1419 2048 208 -2429 0
1419 2048 -208 2429 0
1419 2048 456 -1507 0
1419 2048 -456 1507 0
1419 2048 471 -800 0
1419 2048 -471 800 0
1419 2048 32 -2144 0
1419 2048 -32 2144 0
1419 101 0
1419 776 -208 0
1419 -776 208 0
1419 1427 -456 0
1419 -1427 456 0
1419 1220 -471 0
1419 -1220 471 0
1419 2273 -32 0
1419 -2273 32 0
-178 -1080 -1164 0
-178 -1080 -541 0
-178 -1080 -684 0
-178 -1080 -1820 0
-178 -1080 479 -541 0
-178 -1080 -479 541 0
-178 -1080 174 -1820 0
-178 -1080 -174 1820 0
-178 -1080 1710 -1164 0
-178 -1080 -1710 1164 0
-178 -1080 2165 -684 0
-178 -1080 -2165 684 0
-178 1080 1896 0
-178 1080 401 0
-178 1080 618 0
-178 1080 772 0
-178 1080 479 -401 0
-178 1080 -479 401 0
-178 1080 174 -772 0
-178 1080 -174 772 0
-178 1080 1710 -1896 0
-178 1080 -1710 1896 0
-178 1080 2165 -618 0
-178 1080 -2165 618 0
-178 2284 0
-178 820 -479 0
-178 -820 479 0
-178 452 -174 0
-178 -452 174 0
-178 1808 -1710 0
-178 -1808 1710 0
-178 1659 -2165 0
-178 -1659 2165 0
178 -1596 -306 0
178 -1596 -1110 0
178 -1596 1956 0
178 -1596 358 0
178 -1596 821 -1110 0
178 -1596 -821 1110 0
178 -1596 1236 -358 0
178 -1596 -1236 358 0
178 -1596 315 -306 0
178 -1596 -315 306 0
178 -1596 1270 -1956 0
178 -1596 -1270 1956 0
178 1596 407 0
178 1596 907 0
178 1596 -1169 0
178 1596 -1364 0
178 1596 821 -907 0
178 1596 -821 907 0
178 1596 1236 -1364 0
178 1596 -1236 1364 0
178 1596 315 -407 0
178 1596 -315 407 0
178 1596 1270 -1169 0
178 1596 -1270 1169 0
178 972 0
178 820 -821 0
178 -820 821 0
178 452 -1236 0
178 -452 1236 0
178 1808 -315 0
178 -1808 315 0
178 1659 -1270 0
178 -1659 1270 0
-1865 -400 -449 0
-1865 -400 -1098 0
-1865 -400 -2052 0
-1865 -400 -1196 0
-1865 -400 2353 -1098 0
-1865 -400 -2353 1098 0
-1865 -400 2156 -1196 0
-1865 -400 -2156 1196 0
-1865 -400 2307 -449 0
-1865 -400 -2307 449 0
-1865 -400 670 -2052 0
-1865 -400 -670 2052 0
-1865 400 2102 0
-1865 400 267 0
-1865 400 1058 0
-1865 400 886 0
-1865 400 2353 -267 0
-1865 400 -2353 267 0
-1865 400 2156 -886 0
-1865 400 -2156 886 0
-1865 400 2307 -2102 0
-1865 400 -2307 2102 0
-1865 400 670 -1058 0
-1865 400 -670 1058 0
-1865 510 0
-1865 469 -2353 0
-1865 -469 2353 0
-1865 7 -2156 0
-1865 -7 2156 0
-1865 1267 -2307 0
-1865 -1267 2307 0
-1865 1945 -670 0
-1865 -1945 670 0
1865 -558 -368 0
1865 -558 -2106 0
1865 -558 1014 0
1865 -558 639 0
1865 -558 2333 -2106 0
1865 -558 -2333 2106 0
1865 -558 2427 -639 0
1865 -558 -2427 639 0
1865 -558 630 -368 0
1865 -558 -630 368 0
1865 -558 1727 -1014 0
1865 -558 -1727 1014 0
1865 558 591 0
1865 558 2083 0
1865 558 -1283 0
1865 558 -1222 0
1865 558 2333 -2083 0
1865 558 -2333 2083 0
1865 558 2427 -1222 0
1865 558 -2427 1222 0
1865 558 630 -591 0
1865 558 -630 591 0
1865 558 1727 -1283 0
1865 558 -1727 1283 0
1865 858 0
1865 469 -2333 0
1865 -469 2333 0
1865 7 -2427 0
1865 -7 2427 0
1865 1267 -630 0
1865 -1267 630 0
1865 1945 -1727 0
1865 -1945 1727 0
-1426 -1569 -462 0
-1426 -1569 -87 0
-1426 -1569 -1964 0
-1426 -1569 -2215 0
-1426 -1569 2202 -87 0
-1426 -1569 -2202 87 0
-1426 -1569 1095 -2215 0
-1426 -1569 -1095 2215 0
-1426 -1569 1814 -462 0
-1426 -1569 -1814 462 0
-1426 -1569 1279 -1964 0
-1426 -1569 -1279 1964 0
-1426 1569 1634 0
-1426 1569 340 0
-1426 1569 2295 0
-1426 1569 1811 0
-1426 1569 2202 -340 0
-1426 1569 -2202 340 0
-1426 1569 1095 -1811 0
-1426 1569 -1095 1811 0
-1426 1569 1814 -1634 0
-1426 1569 -1814 1634 0
-1426 1569 1279 -2295 0
-1426 1569 -1279 2295 0
-1426 2368 0
-1426 1697 -2202 0
-1426 -1697 2202 0
-1426 2101 -1095 0
-1426 -2101 1095 0
-1426 469 -1814 0
-1426 -469 1814 0
-1426 1082 -1279 0
-1426 -1082 1279 0
1426 -336 -1584 0
1426 -336 -1661 0
1426 -336 1774 0
1426 -336 873 0
1426 -336 255 -1661 0
1426 -336 -255 1661 0
1426 -336 1975 -873 0
1426 -336 -1975 873 0
1426 -336 1722 -1584 0
1426 -336 -1722 1584 0
1426 -336 1024 -1774 0
1426 -336 -1024 1774 0
1426 336 185 0
1426 336 795 0
1426 336 -1485 0
1426 336 -426 0
1426 336 255 -795 0
1426 336 -255 795 0
1426 336 1975 -426 0
1426 336 -1975 426 0
1426 336 1722 -185 0
1426 336 -1722 185 0
1426 336 1024 -1485 0
1426 336 -1024 1485 0
1426 534 0
1426 1697 -255 0
1426 -1697 255 0
1426 2101 -1975 0
1426 -2101 1975 0
1426 469 -1722 0
1426 -469 1722 0
1426 1082 -1024 0
1426 -1082 1024 0
-862 -1154 -1549 0
-862 -1154 -2192 0
-862 -1154 -1966 0
-862 -1154 -1643 0
-862 -1154 1296 -2192 0
-862 -1154 -1296 2192 0
-862 -1154 1961 -1643 0
-862 -1154 -1961 1643 0
-862 -1154 574 -1549 0
-862 -1154 -574 1549 0
-862 -1154 2080 -1966 0
-862 -1154 -2080 1966 0
-862 1154 1231 0
-862 1154 2124 0
-862 1154 763 0
-862 1154 887 0
-862 1154 1296 -2124 0
-862 1154 -1296 2124 0
-862 1154 1961 -887 0
-862 1154 -1961 887 0
-862 1154 574 -1231 0
-862 1154 -574 1231 0
-862 1154 2080 -763 0
-862 1154 -2080 763 0
-862 1304 0
-862 233 -1296 0
-862 -233 1296 0
-862 963 -1961 0
-862 -963 1961 0
-862 1697 -574 0
-862 -1697 574 0
-862 2224 -2080 0
-862 -2224 2080 0
862 -2204 -2071 0
862 -2204 -967 0
862 -2204 244 0
862 -2204 411 0
862 -2204 1320 -967 0
862 -2204 -1320 967 0
862 -2204 2245 -411 0
862 -2204 -2245 411 0
862 -2204 1720 -2071 0
862 -2204 -1720 2071 0
862 -2204 1430 -244 0
862 -2204 -1430 244 0
862 2204 1940 0
862 2204 1566 0
862 2204 -1673 0
862 2204 -2123 0
862 2204 1320 -1566 0
862 2204 -1320 1566 0
862 2204 2245 -2123 0
862 2204 -2245 2123 0
862 2204 1720 -1940 0
862 2204 -1720 1940 0
862 2204 1430 -1673 0
862 2204 -1430 1673 0
862 1097 0
862 233 -1320 0
862 -233 1320 0
862 963 -2245 0
862 -963 2245 0
862 1697 -1720 0
862 -1697 1720 0
862 2224 -1430 0
862 -2224 1430 0
-258 -317 -946 0
-258 -317 -1351 0
-258 -317 -1911 0
-258 -317 -1464 0
-258 -317 313 -1351 0
-258 -317 -313 1351 0
-258 -317 300 -1464 0
-258 -317 -300 1464 0
-258 -317 2155 -946 0
-258 -317 -2155 946 0
-258 -317 1192 -1911 0
-258 -317 -1192 1911 0
-258 317 433 0
-258 317 1088 0
-258 317 603 0
-258 317 2432 0
-258 317 313 -1088 0
-258 317 -313 1088 0
-258 317 300 -2432 0
-258 317 -300 2432 0
-258 317 2155 -433 0
-258 317 -2155 433 0
-258 317 1192 -603 0
-258 317 -1192 603 0
-258 6 0
-258 1496 -313 0
-258 -1496 313 0
-258 1886 -300 0
-258 -1886 300 0
-258 1637 -2155 0
-258 -1637 2155 0
-258 2101 -1192 0
-258 -2101 1192 0
258 -2434 -852 0
258 -2434 -543 0
258 -2434 782 0
258 -2434 881 0
258 -2434 2281 -543 0
258 -2434 -2281 543 0
258 -2434 1689 -881 0
258 -2434 -1689 881 0
258 -2434 1752 -852 0
258 -2434 -1752 852 0
258 -2434 1895 -782 0
258 -2434 -1895 782 0
258 2434 2200 0
258 2434 1928 0
258 2434 -2051 0
258 2434 -301 0
258 2434 2281 -1928 0
258 2434 -2281 1928 0
258 2434 1689 -301 0
258 2434 -1689 301 0
258 2434 1752 -2200 0
258 2434 -1752 2200 0
258 2434 1895 -2051 0
258 2434 -1895 2051 0
258 747 0
258 1496 -2281 0
258 -1496 2281 0
258 1886 -1689 0
258 -1886 1689 0
258 1637 -1752 0
258 -1637 1752 0
258 2101 -1895 0
258 -2101 1895 0
-1089 -346 -985 0
-1089 -346 -2061 0
-1089 -346 -969 0
-1089 -346 -1608 0
-1089 -346 2055 -2061 0
-1089 -346 -2055 2061 0
-1089 -346 402 -1608 0
-1089 -346 -402 1608 0
-1089 -346 152 -985 0
-1089 -346 -152 985 0
-1089 -346 604 -969 0
-1089 -346 -604 969 0
-1089 346 1991 0
-1089 346 655 0
-1089 346 807 0
-1089 346 2082 0
-1089 346 2055 -655 0
-1089 346 -2055 655 0
-1089 346 402 -2082 0
-1089 346 -402 2082 0
-1089 346 152 -1991 0
-1089 346 -152 1991 0
-1089 346 604 -807 0
-1089 346 -604 807 0
-1089 669 0
-1089 2256 -2055 0
-1089 -2256 2055 0
-1089 299 -402 0
-1089 -299 402 0
-1089 1496 -152 0
-1089 -1496 152 0
-1089 1468 -604 0
-1089 -1468 604 0
1089 -263 -210 0
1089 -263 -484 0
1089 -263 1155 0
1089 -263 135 0
1089 -263 1781 -484 0
1089 -263 -1781 484 0
1089 -263 499 -135 0
1089 -263 -499 135 0
1089 -263 1414 -210 0
1089 -263 -1414 210 0
1089 -263 2077 -1155 0
1089 -263 -2077 1155 0
1089 263 1745 0
1089 263 950 0
1089 263 -857 0
1089 263 -1460 0
1089 263 1781 -950 0
1089 263 -1781 950 0
1089 263 499 -1460 0
1089 263 -499 1460 0
1089 263 1414 -1745 0
1089 263 -1414 1745 0
1089 263 2077 -857 0
1089 263 -2077 857 0
1089 2337 0
1089 2256 -1781 0
1089 -2256 1781 0
1089 299 -499 0
1089 -299 499 0
1089 1496 -1414 0
1089 -1496 1414 0
1089 1468 -2077 0
1089 -1468 2077 0
-1331 -2380 -1392 0
-1331 -2380 -927 0
-1331 -2380 -1893 0
-1331 -2380 -908 0
-1331 -2380 710 -927 0
-1331 -2380 -710 927 0
-1331 -2380 654 -908 0
-1331 -2380 -654 908 0
-1331 -2380 1128 -1392 0
-1331 -2380 -1128 1392 0
-1331 -2380 1135 -1893 0
-1331 -2380 -1135 1893 0
-1331 2380 559 0
-1331 2380 1528 0
-1331 2380 786 0
-1331 2380 383 0
-1331 2380 710 -1528 0
-1331 2380 -710 1528 0
-1331 2380 654 -383 0
-1331 2380 -654 383 0
-1331 2380 1128 -559 0
-1331 2380 -1128 559 0
-1331 2380 1135 -786 0
-1331 2380 -1135 786 0
-1331 1133 0
-1331 2027 -710 0
-1331 -2027 710 0
-1331 587 -654 0
-1331 -587 654 0
-1331 14 -1128 0
-1331 -14 1128 0
-1331 56 -1135 0
-1331 -56 1135 0
1331 -817 -699 0
1331 -817 -683 0
1331 -817 2379 0
1331 -817 935 0
1331 -817 1425 -683 0
1331 -817 -1425 683 0
1331 -817 322 -935 0
1331 -817 -322 935 0
1331 -817 137 -699 0
1331 -817 -137 699 0
1331 -817 2394 -2379 0
1331 -817 -2394 2379 0
1331 817 1022 0
1331 817 2405 0
1331 817 -282 0
1331 817 -1294 0
1331 817 1425 -2405 0
1331 817 -1425 2405 0
1331 817 322 -1294 0
1331 817 -322 1294 0
1331 817 137 -1022 0
1331 817 -137 1022 0
1331 817 2394 -282 0
1331 817 -2394 282 0
1331 809 0
1331 2027 -1425 0
1331 -2027 1425 0
1331 587 -322 0
1331 -587 322 0
1331 14 -137 0
1331 -14 137 0
1331 56 -2394 0
1331 -56 2394 0
-2361 -2067 -1051 0
-2361 -2067 -1423 0
-2361 -2067 -1784 0
-2361 -2067 -812 0
-2361 -2067 254 -1423 0
-2361 -2067 -254 1423 0
-2361 -2067 1141 -812 0
-2361 -2067 -1141 812 0
-2361 -2067 2375 -1051 0
-2361 -2067 -2375 1051 0
-2361 -2067 319 -1784 0
-2361 -2067 -319 1784 0
-2361 2067 1289 0
-2361 2067 2286 0
-2361 2067 187 0
-2361 2067 1768 0
-2361 2067 254 -2286 0
-2361 2067 -254 2286 0
-2361 2067 1141 -1768 0
-2361 2067 -1141 1768 0
-2361 2067 2375 -1289 0
-2361 2067 -2375 1289 0
-2361 2067 319 -187 0
-2361 2067 -319 187 0
-2361 605 0
-2361 345 -254 0
-2361 -345 254 0
-2361 1226 -1141 0
-2361 -1226 1141 0
-2361 1625 -2375 0
-2361 -1625 2375 0
-2361 299 -319 0
-2361 -299 319 0
2361 -2430 -35 0
2361 -2430 -2145 0
2361 -2430 1501 0
2361 -2430 1642 0
2361 -2430 1734 -2145 0
2361 -2430 -1734 2145 0
2361 -2430 165 -1642 0
2361 -2430 -165 1642 0
2361 -2430 1598 -35 0
2361 -2430 -1598 35 0
2361 -2430 1760 -1501 0
2361 -2430 -1760 1501 0
2361 2430 2306 0
2361 2430 2275 0
2361 2430 -614 0
2361 2430 -2069 0
2361 2430 1734 -2275 0
2361 2430 -1734 2275 0
2361 2430 165 -2069 0
2361 2430 -165 2069 0
2361 2430 1598 -2306 0
2361 2430 -1598 2306 0
2361 2430 1760 -614 0
2361 2430 -1760 614 0
2361 273 0
2361 345 -1734 0
2361 -345 1734 0
2361 1226 -165 0
2361 -1226 165 0
2361 1625 -1598 0
2361 -1625 1598 0
2361 299 -1760 0
2361 -299 1760 0
-269 -1756 -1335 0
-269 -1756 -307 0
-269 -1756 -24 0
-269 -1756 -2137 0
-269 -1756 339 -307 0
-269 -1756 -339 307 0
-269 -1756 1680 -2137 0
-269 -1756 -1680 2137 0
-269 -1756 1630 -1335 0
-269 -1756 -1630 1335 0
-269 -1756 351 -24 0
-269 -1756 -351 24 0
-269 1756 528 0
-269 1756 288 0
-269 1756 418 0
-269 1756 1688 0
-269 1756 339 -288 0
-269 1756 -339 288 0
-269 1756 1680 -1688 0
-269 1756 -1680 1688 0
-269 1756 1630 -528 0
-269 1756 -1630 528 0
-269 1756 351 -418 0
-269 1756 -351 418 0
-269 1048 0
-269 473 -339 0
-269 -473 339 0
-269 2207 -1680 0
-269 -2207 1680 0
-269 587 -1630 0
-269 -587 1630 0
-269 1374 -351 0
-269 -1374 351 0
269 -2348 -1171 0
269 -2348 -1535 0
269 -2348 149 0
269 -2348 1363 0
269 -2348 250 -1535 0
269 -2348 -250 1535 0
269 -2348 1476 -1363 0
269 -2348 -1476 1363 0
269 -2348 434 -1171 0
269 -2348 -434 1171 0
269 -2348 1102 -149 0
269 -2348 -1102 149 0
269 2348 1057 0
269 2348 490 0
269 2348 -1348 0
269 2348 -271 0
269 2348 250 -490 0
269 2348 -250 490 0
269 2348 1476 -271 0
269 2348 -1476 271 0
269 2348 434 -1057 0
269 2348 -434 1057 0
269 2348 1102 -1348 0
269 2348 -1102 1348 0
269 1109 0
269 473 -250 0
269 -473 250 0
269 2207 -1476 0
269 -2207 1476 0
269 587 -434 0
269 -587 434 0
269 1374 -1102 0
269 -1374 1102 0
-177 -376 -1746 0
-177 -376 -598 0
-177 -376 -1259 0
-177 -376 -2378 0
-177 -376 133 -598 0
-177 -376 -133 598 0
-177 -376 1219 -2378 0
-177 -376 -1219 2378 0
-177 -376 1365 -1746 0
-177 -376 -1365 1746 0
-177 -376 2302 -1259 0
-177 -376 -2302 1259 0
-177 376 361 0
-177 376 758 0
-177 376 773 0
-177 376 217 0
-177 376 133 -758 0
-177 376 -133 758 0
-177 376 1219 -217 0
-177 376 -1219 217 0
-177 376 1365 -361 0
-177 376 -1365 361 0
-177 376 2302 -773 0
-177 376 -2302 773 0
-177 238 0
-177 170 -133 0
-177 -170 133 0
-177 544 -1219 0
-177 -544 1219 0
-177 561 -1365 0
-177 -561 1365 0
-177 1226 -2302 0
-177 -1226 2302 0
177 -1079 -2311 0
177 -1079 -405 0
177 -1079 42 0
177 -1079 720 0
177 -1079 1316 -405 0
177 -1079 -1316 405 0
177 -1079 2341 -720 0
177 -1079 -2341 720 0
177 -1079 1664 -2311 0
177 -1079 -1664 2311 0
177 -1079 848 -42 0
177 -1079 -848 42 0
177 1079 2298 0
177 1079 2335 0
177 1079 -713 0
177 1079 -698 0
177 1079 1316 -2335 0
177 1079 -1316 2335 0
177 1079 2341 -698 0
177 1079 -2341 698 0
177 1079 1664 -2298 0
177 1079 -1664 2298 0
177 1079 848 -713 0
177 1079 -848 713 0
177 283 0
177 170 -1316 0
177 -170 1316 0
177 544 -2341 0
177 -544 2341 0
177 561 -1664 0
177 -561 1664 0
177 1226 -848 0
177 -1226 848 0
453 -1616 0
-453 1616 0
447 -904 0
-447 904 0
617 -1687 0
-617 1687 0
1666 -2317 0
-1666 2317 0
544 -75 0
-544 75 0
227 -1988 0
-227 1988 0
1719 -112 0
-1719 112 0
963 -2263 0
-963 2263 0
1152 -1254 0
-1152 1254 0
2038 -1498 0
-2038 1498 0
2133 -93 0
-2133 93 0
1139 -1068 0
-1139 1068 0
170 -1632 0
-170 1632 0
473 -989 0
-473 989 0
7 -1529 0
-7 1529 0
233 -67 0
-233 67 0
452 -53 0
-452 53 0
2027 -733 0
-2027 733 0
1211 -1445 0
-1211 1445 0
1475 -1592 0
-1475 1592 0
2207 -834 0
-2207 834 0
393 -2199 0
-393 2199 0
2256 -2426 0
-2256 2426 0
1886 -1042 0
-1886 1042 0
345 -2181 0
-345 2181 0
2136 -88 0
-2136 88 0
1395 -321 0
-1395 321 0
495 -2120 0
-495 2120 0
84 -1262 0
-84 1262 0
820 -2004 0
-820 2004 0
96 -2415 0
-96 2415 0
776 -1225 0
-776 1225 0
1431 -2138 0
-1431 2138 0
986 -2309 0
-986 2309 0
1195 -2418 0
-1195 2418 0
1191 -1532 0
-1191 1532 0
1427 -1715 0
-1427 1715 0
312 -1354 0
-312 1354 0
482 -2270 0
-482 2270 0
549 -1548 0
-549 1548 0
2068 -2010 0
-2068 2010 0
1293 -564 0
-1293 564 0
1193 -1406 0
-1193 1406 0
85 -1034 0
-85 1034 0
1931 -2070 0
-1931 2070 0
2321 -2321 0
-2321 2321 0
1725 -2147 0
-1725 2147 0
1046 -204 0
-1046 204 0
645 -1402 0
-645 1402 0
609 -2006 0
-609 2006 0
