p cnf 3191 6786
w 1 0.5
w 2 0.5
w 3 0.5
w 4 0.5
w 5 0.5
w 6 0.5
w 7 0.5
w 8 0.5
w 9 0.5
w 10 0.5
w 11 0.5
w 12 0.5
w 13 0.5
w 14 0.5
w 15 0.5
w 16 0.5
w 17 0.5
w 18 0.5
w 19 0.5
w 20 0.5
w 21 0.5
w 22 0.5
w 23 0.5
w 24 0.5
w 25 0.4447668271756181
w 26 0.5
w 27 0.5
w 28 0.5
w 29 0.5
w 30 0.5
w 31 0.5
w 32 0.5
w 33 0.5
w 34 0.5
w 35 0.5
w 36 0.5
w 37 0.5
w 38 0.8704284694221361
w 39 0.5
w 40 0.5
w 41 0.5
w 42 0.5
w 43 0.5
w 44 0.5
w 45 0.5
w 46 0.5
w 47 0.5
w 48 0.5
w 49 0.5
w 50 0.5
w 51 0.5
w 52 0.5
w 53 0.5
w 54 0.5
w 55 0.5
w 56 0.5
w 57 0.5
w 58 0.5
w 59 0.5
w 60 0.5
w 61 0.5
w 62 0.5
w 63 0.5
w 64 0.5
w 65 0.5
w 66 0.5
w 67 0.5
w 68 0.5
w 69 0.5
w 70 0.5
w 71 0.5
w 72 0.5
w 73 0.5
w 74 0.5
w 75 0.5
w 76 0.5
w 77 0.5
w 78 0.5
w 79 0.5
w 80 0.5
w 81 0.5
w 82 0.5
w 83 0.5
w 84 0.5
w 85 0.5
w 86 0.5
w 87 0.5
w 88 0.5
w 89 0.5
w 90 0.5
w 91 0.5
w 92 0.5
w 93 0.5
w 94 0.5
w 95 0.5
w 96 0.5
w 97 0.5
w 98 0.5
w 99 0.5
w 100 0.5
w 101 0.5
w 102 0.5
w 103 0.5
w 104 0.5
w 105 0.5
w 106 0.5
w 107 0.5
w 108 0.5
w 109 0.5
w 110 0.5
w 111 0.5
w 112 0.5
w 113 0.5
w 114 0.5
w 115 0.5
w 116 0.5
w 117 0.5
w 118 0.5
w 119 0.5
w 120 0.5
w 121 0.5
w 122 0.5
w 123 0.5
w 124 0.5
w 125 0.5
w 126 0.5
w 127 0.5
w 128 0.5
w 129 0.5
w 130 0.5
w 131 0.5
w 132 0.5
w 133 0.5
w 134 0.5
w 135 0.5
w 136 0.5
w 137 0.5
w 138 0.5
w 139 0.5
w 140 0.5637826656161112
w 141 0.5
w 142 0.5
w 143 0.5
w 144 0.5
w 145 0.5
w 146 0.5
w 147 0.5
w 148 0.5
w 149 0.5
w 150 0.5
w 151 0.5
w 152 0.5
w 153 0.5
w 154 0.5
w 155 0.5
w 156 0.5
w 157 0.5
w 158 0.5
w 159 0.5
w 160 0.5
w 161 0.5
w 162 0.5
w 163 0.5
w 164 0.12632070059382386
w 165 0.5
w 166 0.5
w 167 0.5
w 168 0.5
w 169 0.5
w 170 0.5
w 171 0.8263508160830048
w 172 0.5
w 173 0.5
w 174 0.5
w 175 0.5
w 176 0.5
w 177 0.5
w 178 0.5
w 179 0.5
w 180 0.5
w 181 0.5
w 182 0.5
w 183 0.5
w 184 0.5
w 185 0.5
w 186 0.5
w 187 0.5
w 188 0.8480811840636766
w 189 0.5
w 190 0.5
w 191 0.5
w 192 0.5
w 193 0.5
w 194 0.5
w 195 0.5
w 196 0.5
w 197 0.5
w 198 0.5
w 199 0.5
w 200 0.5
w 201 0.5
w 202 0.5
w 203 0.5
w 204 0.5
w 205 0.5
w 206 0.5
w 207 0.5
w 208 0.5
w 209 0.5
w 210 0.5
w 211 0.5
w 212 0.5
w 213 0.5
w 214 0.5
w 215 0.5
w 216 0.5
w 217 0.5
w 218 0.5
w 219 0.5
w 220 0.5
w 221 0.5
w 222 0.5
w 223 0.5
w 224 0.5
w 225 0.5
w 226 0.5
w 227 0.5
w 228 0.5
w 229 0.5
w 230 0.5
w 231 0.5
w 232 0.5
w 233 0.5
w 234 0.5
w 235 0.5
w 236 0.5
w 237 0.5
w 238 0.5
w 239 0.5
w 240 0.5
w 241 0.5
w 242 0.5
w 243 0.5
w 244 0.5
w 245 0.5
w 246 0.5
w 247 0.5
w 248 0.5
w 249 0.5
w 250 0.5
w 251 0.5
w 252 0.5
w 253 0.5
w 254 0.5
w 255 0.625435368241974
w 256 0.5
w 257 0.5
w 258 0.5
w 259 0.5
w 260 0.5
w 261 0.5
w 262 0.5
w 263 0.5
w 264 0.5
w 265 0.5
w 266 0.5
w 267 0.5
w 268 0.5
w 269 0.5
w 270 0.5
w 271 0.5
w 272 0.5
w 273 0.5
w 274 0.5
w 275 0.5
w 276 0.5
w 277 0.5
w 278 0.5
w 279 0.5
w 280 0.5
w 281 0.5
w 282 0.5
w 283 0.5
w 284 0.5
w 285 0.5
w 286 0.5
w 287 0.5
w 288 0.5
w 289 0.5
w 290 0.5
w 291 0.5
w 292 0.5
w 293 0.5
w 294 0.5
w 295 0.5
w 296 0.5
w 297 0.5
w 298 0.5
w 299 0.5
w 300 0.5
w 301 0.5
w 302 0.5
w 303 0.5
w 304 0.5
w 305 0.5
w 306 0.5
w 307 0.5
w 308 0.5
w 309 0.5
w 310 0.5
w 311 0.5
w 312 0.5
w 313 0.5
w 314 0.5
w 315 0.5
w 316 0.5
w 317 0.5
w 318 0.5
w 319 0.5
w 320 0.7800396824006237
w 321 0.5
w 322 0.5
w 323 0.5
w 324 0.5
w 325 0.5
w 326 0.5
w 327 0.5
w 328 0.5
w 329 0.5
w 330 0.5
w 331 0.5
w 332 0.5
w 333 0.5
w 334 0.7168992599995487
w 335 0.806841649490648
w 336 0.5
w 337 0.5
w 338 0.5
w 339 0.5
w 340 0.5
w 341 0.5
w 342 0.5
w 343 0.5
w 344 0.5
w 345 0.5
w 346 0.5
w 347 0.5
w 348 0.5
w 349 0.5
w 350 0.5
w 351 0.5
w 352 0.5
w 353 0.5
w 354 0.5
w 355 0.5
w 356 0.5
w 357 0.5
w 358 0.5
w 359 0.5
w 360 0.5
w 361 0.5
w 362 0.5
w 363 0.5
w 364 0.5
w 365 0.5
w 366 0.5
w 367 0.5
w 368 0.5
w 369 0.5
w 370 0.5
w 371 0.5
w 372 0.5
w 373 0.5
w 374 0.5
w 375 0.5
w 376 0.5
w 377 0.5
w 378 0.5
w 379 0.5
w 380 0.5
w 381 0.5
w 382 0.5
w 383 0.5
w 384 0.5
w 385 0.5
w 386 0.15593116612050242
w 387 0.5
w 388 0.5
w 389 0.5
w 390 0.5
w 391 0.5
w 392 0.5
w 393 0.5
w 394 0.4115951864977799
w 395 0.5
w 396 0.5
w 397 0.5
w 398 0.5
w 399 0.5
w 400 0.5
w 401 0.5
w 402 0.5
w 403 0.5
w 404 0.5
w 405 0.5
w 406 0.5
w 407 0.5
w 408 0.5
w 409 0.5
w 410 0.5
w 411 0.5
w 412 0.5
w 413 0.5
w 414 0.5
w 415 0.5
w 416 0.5
w 417 0.5
w 418 0.5
w 419 0.5
w 420 0.5
w 421 0.5
w 422 0.5
w 423 0.5
w 424 0.5
w 425 0.5
w 426 0.5
w 427 0.5
w 428 0.5
w 429 0.5
w 430 0.5
w 431 0.5
w 432 0.5
w 433 0.5
w 434 0.5
w 435 0.5
w 436 0.5
w 437 0.5
w 438 0.5
w 439 0.5
w 440 0.5
w 441 0.5
w 442 0.5
w 443 0.5
w 444 0.5
w 445 0.5
w 446 0.5
w 447 0.5
w 448 0.5
w 449 0.5
w 450 0.5
w 451 0.5
w 452 0.5
w 453 0.5
w 454 0.5
w 455 0.5
w 456 0.5
w 457 0.5
w 458 0.5
w 459 0.5
w 460 0.5
w 461 0.5
w 462 0.5
w 463 0.5
w 464 0.5
w 465 0.20749434522788338
w 466 0.5
w 467 0.5
w 468 0.5
w 469 0.5
w 470 0.5
w 471 0.5
w 472 0.5
w 473 0.5
w 474 0.5
w 475 0.5
w 476 0.5
w 477 0.5
w 478 0.5
w 479 0.5
w 480 0.5
w 481 0.5
w 482 0.5
w 483 0.5
w 484 0.5
w 485 0.5
w 486 0.5
w 487 0.5
w 488 0.5
w 489 0.5
w 490 0.7035886284749683
w 491 0.5
w 492 0.5
w 493 0.5
w 494 0.5
w 495 0.5
w 496 0.5
w 497 0.5
w 498 0.5
w 499 0.4361080838003078
w 500 0.5
w 501 0.5
w 502 0.5
w 503 0.5
w 504 0.5
w 505 0.5
w 506 0.5
w 507 0.5
w 508 0.5
w 509 0.5
w 510 0.5
w 511 0.5
w 512 0.5
w 513 0.5
w 514 0.5
w 515 0.5
w 516 0.5
w 517 0.5
w 518 0.5
w 519 0.5
w 520 0.5
w 521 0.5
w 522 0.5
w 523 0.5
w 524 0.5
w 525 0.5
w 526 0.5
w 527 0.5
w 528 0.5
w 529 0.5
w 530 0.5
w 531 0.5
w 532 0.5
w 533 0.5
w 534 0.5
w 535 0.5
w 536 0.5
w 537 0.5
w 538 0.5
w 539 0.5
w 540 0.5
w 541 0.5
w 542 0.5
w 543 0.5
w 544 0.5
w 545 0.5
w 546 0.6907509439476452
w 547 0.5
w 548 0.5
w 549 0.5
w 550 0.5
w 551 0.5
w 552 0.5
w 553 0.5
w 554 0.5
w 555 0.5
w 556 0.5
w 557 0.5
w 558 0.5
w 559 0.5
w 560 0.5
w 561 0.5
w 562 0.5
w 563 0.5
w 564 0.5
w 565 0.5
w 566 0.5
w 567 0.5
w 568 0.5
w 569 0.5
w 570 0.5
w 571 0.5
w 572 0.5
w 573 0.5
w 574 0.5
w 575 0.5
w 576 0.5
w 577 0.5
w 578 0.5
w 579 0.5
w 580 0.5
w 581 0.5
w 582 0.5
w 583 0.5
w 584 0.5
w 585 0.5
w 586 0.5
w 587 0.5
w 588 0.2431442064036337
w 589 0.5
w 590 0.5
w 591 0.5
w 592 0.5
w 593 0.5
w 594 0.7842868166765031
w 595 0.5
w 596 0.5
w 597 0.5
w 598 0.5
w 599 0.5
w 600 0.5
w 601 0.5
w 602 0.5
w 603 0.5
w 604 0.5
w 605 0.5
w 606 0.5
w 607 0.5
w 608 0.5
w 609 0.5
w 610 0.5
w 611 0.5
w 612 0.5
w 613 0.5
w 614 0.5
w 615 0.5
w 616 0.5
w 617 0.5
w 618 0.5
w 619 0.5
w 620 0.5
w 621 0.5
w 622 0.5
w 623 0.5
w 624 0.5
w 625 0.5
w 626 0.5
w 627 0.5
w 628 0.5
w 629 0.5
w 630 0.5
w 631 0.5
w 632 0.5
w 633 0.5
w 634 0.5
w 635 0.5
w 636 0.5
w 637 0.5
w 638 0.5
w 639 0.5
w 640 0.5
w 641 0.7484940872015193
w 642 0.5
w 643 0.5
w 644 0.5
w 645 0.5
w 646 0.5
w 647 0.5
w 648 0.5
w 649 0.5
w 650 0.5
w 651 0.5
w 652 0.5
w 653 0.5
w 654 0.5
w 655 0.5
w 656 0.5
w 657 0.5
w 658 0.5
w 659 0.5
w 660 0.5
w 661 0.5
w 662 0.5
w 663 0.5
w 664 0.5
w 665 0.5
w 666 0.5
w 667 0.5
w 668 0.5
w 669 0.5
w 670 0.5
w 671 0.5
w 672 0.5
w 673 0.5
w 674 0.5
w 675 0.5
w 676 0.5
w 677 0.5
w 678 0.5
w 679 0.8576198726172475
w 680 0.5
w 681 0.5
w 682 0.5
w 683 0.5
w 684 0.5
w 685 0.5
w 686 0.5
w 687 0.5
w 688 0.5
w 689 0.5
w 690 0.5
w 691 0.5
w 692 0.5
w 693 0.5
w 694 0.5
w 695 0.5
w 696 0.5
w 697 0.5
w 698 0.5
w 699 0.5
w 700 0.5
w 701 0.5
w 702 0.5
w 703 0.5
w 704 0.5
w 705 0.5
w 706 0.5
w 707 0.5
w 708 0.5
w 709 0.5
w 710 0.5
w 711 0.5
w 712 0.5
w 713 0.5
w 714 0.5
w 715 0.5
w 716 0.5
w 717 0.5
w 718 0.5
w 719 0.5
w 720 0.5
w 721 0.5
w 722 0.5
w 723 0.5
w 724 0.5
w 725 0.5
w 726 0.5
w 727 0.5
w 728 0.5
w 729 0.5
w 730 0.5
w 731 0.5
w 732 0.5
w 733 0.5
w 734 0.5
w 735 0.5
w 736 0.5
w 737 0.5
w 738 0.5
w 739 0.5
w 740 0.5
w 741 0.5
w 742 0.5
w 743 0.5
w 744 0.5
w 745 0.5
w 746 0.5
w 747 0.5
w 748 0.5
w 749 0.5
w 750 0.5
w 751 0.8102970448744563
w 752 0.5
w 753 0.5
w 754 0.5
w 755 0.5
w 756 0.5
w 757 0.5
w 758 0.5
w 759 0.5
w 760 0.5
w 761 0.5
w 762 0.5
w 763 0.5
w 764 0.5
w 765 0.5
w 766 0.5
w 767 0.5
w 768 0.5
w 769 0.5
w 770 0.5
w 771 0.5
w 772 0.5
w 773 0.5
w 774 0.5
w 775 0.5
w 776 0.5
w 777 0.5
w 778 0.5
w 779 0.5
w 780 0.20583338856189437
w 781 0.5
w 782 0.5
w 783 0.5
w 784 0.5
w 785 0.5
w 786 0.5
w 787 0.5
w 788 0.5
w 789 0.5
w 790 0.5
w 791 0.5
w 792 0.5
w 793 0.5
w 794 0.5
w 795 0.5
w 796 0.5
w 797 0.5
w 798 0.5
w 799 0.5
w 800 0.5
w 801 0.5
w 802 0.5
w 803 0.5
w 804 0.5
w 805 0.5
w 806 0.5
w 807 0.5
w 808 0.5
w 809 0.5
w 810 0.5
w 811 0.5
w 812 0.5
w 813 0.5
w 814 0.5
w 815 0.5
w 816 0.5
w 817 0.5
w 818 0.5
w 819 0.5
w 820 0.5
w 821 0.5
w 822 0.5
w 823 0.5
w 824 0.5
w 825 0.5
w 826 0.5
w 827 0.5
w 828 0.5
w 829 0.5
w 830 0.5
w 831 0.5
w 832 0.5
w 833 0.5
w 834 0.5
w 835 0.5
w 836 0.5
w 837 0.5
w 838 0.5
w 839 0.5
w 840 0.5
w 841 0.5
w 842 0.5
w 843 0.5
w 844 0.5
w 845 0.5
w 846 0.5
w 847 0.5
w 848 0.5
w 849 0.5
w 850 0.5
w 851 0.5
w 852 0.5
w 853 0.5
w 854 0.5
w 855 0.5
w 856 0.5
w 857 0.5
w 858 0.5
w 859 0.5
w 860 0.5
w 861 0.5
w 862 0.5
w 863 0.5
w 864 0.5
w 865 0.5
w 866 0.5
w 867 0.5
w 868 0.5
w 869 0.5
w 870 0.5
w 871 0.5
w 872 0.5
w 873 0.5
w 874 0.5
w 875 0.5
w 876 0.5
w 877 0.5
w 878 0.5
w 879 0.5
w 880 0.5
w 881 0.5
w 882 0.5
w 883 0.5
w 884 0.5
w 885 0.5
w 886 0.5
w 887 0.5
w 888 0.5
w 889 0.5
w 890 0.5
w 891 0.5
w 892 0.5
w 893 0.5
w 894 0.5
w 895 0.8726830377190898
w 896 0.5
w 897 0.5
w 898 0.7509627180952648
w 899 0.5
w 900 0.5
w 901 0.5
w 902 0.5
w 903 0.5
w 904 0.5
w 905 0.5
w 906 0.5
w 907 0.5
w 908 0.5
w 909 0.5
w 910 0.5
w 911 0.5
w 912 0.5
w 913 0.5
w 914 0.5
w 915 0.5
w 916 0.5
w 917 0.5
w 918 0.5
w 919 0.5
w 920 0.5
w 921 0.31782275362962514
w 922 0.5
w 923 0.5
w 924 0.5
w 925 0.5
w 926 0.5
w 927 0.5
w 928 0.5
w 929 0.5
w 930 0.5
w 931 0.5
w 932 0.5
w 933 0.5
w 934 0.5
w 935 0.5
w 936 0.5
w 937 0.5
w 938 0.5
w 939 0.5
w 940 0.5
w 941 0.5
w 942 0.5
w 943 0.20643864072552173
w 944 0.5
w 945 0.5
w 946 0.5
w 947 0.5
w 948 0.5
w 949 0.5
w 950 0.5
w 951 0.5
w 952 0.5
w 953 0.5
w 954 0.5
w 955 0.5
w 956 0.5
w 957 0.5
w 958 0.5
w 959 0.5
w 960 0.5
w 961 0.5
w 962 0.15691935490183015
w 963 0.5
w 964 0.5
w 965 0.5
w 966 0.5
w 967 0.5
w 968 0.5
w 969 0.5
w 970 0.21949212337781893
w 971 0.5
w 972 0.5
w 973 0.5
w 974 0.5
w 975 0.5
w 976 0.5
w 977 0.5
w 978 0.5
w 979 0.5
w 980 0.5
w 981 0.5
w 982 0.5
w 983 0.5
w 984 0.5
w 985 0.5
w 986 0.5
w 987 0.5
w 988 0.5
w 989 0.5
w 990 0.5
w 991 0.5
w 992 0.5
w 993 0.5
w 994 0.5
w 995 0.5
w 996 0.5
w 997 0.5
w 998 0.5
w 999 0.5
w 1000 0.5
w 1001 0.5
w 1002 0.5
w 1003 0.5
w 1004 0.5
w 1005 0.7752293876761236
w 1006 0.5
w 1007 0.5
w 1008 0.5
w 1009 0.5
w 1010 0.5
w 1011 0.5
w 1012 0.5
w 1013 0.5
w 1014 0.5
w 1015 0.5
w 1016 0.5
w 1017 0.5
w 1018 0.5
w 1019 0.5
w 1020 0.5
w 1021 0.5
w 1022 0.5
w 1023 0.5
w 1024 0.5
w 1025 0.5
w 1026 0.5
w 1027 0.5
w 1028 0.5
w 1029 0.48254471838478935
w 1030 0.5
w 1031 0.5
w 1032 0.5
w 1033 0.5
w 1034 0.5
w 1035 0.5
w 1036 0.5
w 1037 0.5
w 1038 0.5
w 1039 0.5
w 1040 0.5
w 1041 0.5
w 1042 0.5
w 1043 0.5
w 1044 0.5
w 1045 0.5
w 1046 0.5
w 1047 0.5
w 1048 0.5
w 1049 0.5
w 1050 0.5
w 1051 0.5
w 1052 0.5
w 1053 0.5
w 1054 0.5
w 1055 0.5
w 1056 0.5
w 1057 0.5
w 1058 0.5
w 1059 0.5
w 1060 0.5
w 1061 0.5
w 1062 0.5
w 1063 0.5
w 1064 0.5
w 1065 0.5
w 1066 0.5
w 1067 0.5
w 1068 0.5
w 1069 0.5
w 1070 0.5
w 1071 0.5
w 1072 0.5
w 1073 0.5
w 1074 0.18531928494609365
w 1075 0.5
w 1076 0.5
w 1077 0.5
w 1078 0.5
w 1079 0.5
w 1080 0.5
w 1081 0.5
w 1082 0.5
w 1083 0.5
w 1084 0.5
w 1085 0.5
w 1086 0.5
w 1087 0.5
w 1088 0.5
w 1089 0.5
w 1090 0.5
w 1091 0.5
w 1092 0.5
w 1093 0.5
w 1094 0.3526945061372132
w 1095 0.5
w 1096 0.5
w 1097 0.5
w 1098 0.5
w 1099 0.5
w 1100 0.5
w 1101 0.5
w 1102 0.5
w 1103 0.5
w 1104 0.5
w 1105 0.5
w 1106 0.5
w 1107 0.5
w 1108 0.5
w 1109 0.5
w 1110 0.5
w 1111 0.5
w 1112 0.5
w 1113 0.5
w 1114 0.5
w 1115 0.5
w 1116 0.5
w 1117 0.5
w 1118 0.5
w 1119 0.5
w 1120 0.5
w 1121 0.5
w 1122 0.5
w 1123 0.5
w 1124 0.5
w 1125 0.5
w 1126 0.5
w 1127 0.5
w 1128 0.5
w 1129 0.5
w 1130 0.5
w 1131 0.5
w 1132 0.5
w 1133 0.5
w 1134 0.5
w 1135 0.5
w 1136 0.5
w 1137 0.5
w 1138 0.5
w 1139 0.5
w 1140 0.5
w 1141 0.5
w 1142 0.5
w 1143 0.5
w 1144 0.5
w 1145 0.5
w 1146 0.5
w 1147 0.5
w 1148 0.5
w 1149 0.5
w 1150 0.5
w 1151 0.5
w 1152 0.5
w 1153 0.5
w 1154 0.5
w 1155 0.5
w 1156 0.5
w 1157 0.5
w 1158 0.5
w 1159 0.5
w 1160 0.5
w 1161 0.5
w 1162 0.5
w 1163 0.5
w 1164 0.5
w 1165 0.5
w 1166 0.5
w 1167 0.716442766676125
w 1168 0.5
w 1169 0.5
w 1170 0.5
w 1171 0.5
w 1172 0.5
w 1173 0.5
w 1174 0.5
w 1175 0.5
w 1176 0.5
w 1177 0.5
w 1178 0.498036829284291
w 1179 0.5
w 1180 0.5
w 1181 0.5
w 1182 0.5
w 1183 0.5
w 1184 0.5
w 1185 0.5
w 1186 0.5
w 1187 0.5
w 1188 0.7372654911778262
w 1189 0.5
w 1190 0.7009811797887302
w 1191 0.5
w 1192 0.5
w 1193 0.24426559753196264
w 1194 0.5
w 1195 0.5
w 1196 0.5
w 1197 0.5
w 1198 0.5
w 1199 0.5
w 1200 0.5
w 1201 0.5
w 1202 0.5
w 1203 0.5
w 1204 0.5
w 1205 0.5
w 1206 0.5
w 1207 0.5
w 1208 0.5
w 1209 0.5
w 1210 0.5
w 1211 0.5
w 1212 0.5
w 1213 0.5
w 1214 0.5
w 1215 0.5
w 1216 0.5
w 1217 0.5
w 1218 0.5
w 1219 0.5
w 1220 0.5
w 1221 0.5
w 1222 0.5
w 1223 0.5
w 1224 0.5
w 1225 0.5
w 1226 0.5
w 1227 0.5
w 1228 0.5
w 1229 0.5
w 1230 0.5
w 1231 0.5
w 1232 0.5
w 1233 0.5
w 1234 0.5
w 1235 0.5
w 1236 0.5
w 1237 0.5
w 1238 0.5
w 1239 0.5
w 1240 0.5
w 1241 0.5
w 1242 0.5
w 1243 0.5
w 1244 0.5
w 1245 0.5
w 1246 0.5
w 1247 0.5
w 1248 0.5
w 1249 0.5
w 1250 0.5
w 1251 0.5
w 1252 0.5
w 1253 0.5
w 1254 0.5
w 1255 0.5
w 1256 0.5
w 1257 0.5
w 1258 0.5
w 1259 0.5
w 1260 0.5
w 1261 0.5
w 1262 0.5
w 1263 0.5
w 1264 0.5
w 1265 0.5
w 1266 0.5
w 1267 0.5
w 1268 0.5
w 1269 0.5
w 1270 0.5
w 1271 0.5
w 1272 0.5
w 1273 0.5
w 1274 0.5
w 1275 0.5
w 1276 0.5
w 1277 0.5
w 1278 0.5
w 1279 0.5
w 1280 0.5
w 1281 0.5
w 1282 0.5
w 1283 0.5
w 1284 0.5
w 1285 0.5
w 1286 0.5
w 1287 0.5
w 1288 0.5
w 1289 0.5
w 1290 0.5
w 1291 0.5
w 1292 0.5
w 1293 0.5
w 1294 0.5
w 1295 0.5
w 1296 0.5
w 1297 0.5
w 1298 0.5
w 1299 0.2840330683299745
w 1300 0.5
w 1301 0.5
w 1302 0.5
w 1303 0.5
w 1304 0.5
w 1305 0.5
w 1306 0.5
w 1307 0.5
w 1308 0.5
w 1309 0.5
w 1310 0.5
w 1311 0.5
w 1312 0.5
w 1313 0.5
w 1314 0.5
w 1315 0.5
w 1316 0.5
w 1317 0.5
w 1318 0.5
w 1319 0.5
w 1320 0.5
w 1321 0.5
w 1322 0.5
w 1323 0.5
w 1324 0.5
w 1325 0.5
w 1326 0.5
w 1327 0.5
w 1328 0.5
w 1329 0.5
w 1330 0.5
w 1331 0.5
w 1332 0.5
w 1333 0.5
w 1334 0.5
w 1335 0.5
w 1336 0.5
w 1337 0.5
w 1338 0.5
w 1339 0.5
w 1340 0.5
w 1341 0.5
w 1342 0.5
w 1343 0.5
w 1344 0.5
w 1345 0.5
w 1346 0.5
w 1347 0.5
w 1348 0.5
w 1349 0.5
w 1350 0.5
w 1351 0.5
w 1352 0.5
w 1353 0.5
w 1354 0.5
w 1355 0.5
w 1356 0.5
w 1357 0.5
w 1358 0.5
w 1359 0.5
w 1360 0.5
w 1361 0.5
w 1362 0.5
w 1363 0.5
w 1364 0.5
w 1365 0.5
w 1366 0.5
w 1367 0.5
w 1368 0.5
w 1369 0.5
w 1370 0.5
w 1371 0.5
w 1372 0.5
w 1373 0.5
w 1374 0.5
w 1375 0.5
w 1376 0.5
w 1377 0.5
w 1378 0.5
w 1379 0.5
w 1380 0.5
w 1381 0.5
w 1382 0.5
w 1383 0.43490102871010167
w 1384 0.5
w 1385 0.5
w 1386 0.5
w 1387 0.5
w 1388 0.5
w 1389 0.5
w 1390 0.5
w 1391 0.5
w 1392 0.5
w 1393 0.5
w 1394 0.5
w 1395 0.5
w 1396 0.5
w 1397 0.5
w 1398 0.5
w 1399 0.5
w 1400 0.5
w 1401 0.5
w 1402 0.5
w 1403 0.5
w 1404 0.5
w 1405 0.5
w 1406 0.5
w 1407 0.5
w 1408 0.5
w 1409 0.791653929374178
w 1410 0.5
w 1411 0.5
w 1412 0.5
w 1413 0.5
w 1414 0.5
w 1415 0.5
w 1416 0.5
w 1417 0.5
w 1418 0.5
w 1419 0.5
w 1420 0.5
w 1421 0.5
w 1422 0.5
w 1423 0.5
w 1424 0.5
w 1425 0.5
w 1426 0.5
w 1427 0.5
w 1428 0.864928924104838
w 1429 0.5
w 1430 0.5
w 1431 0.5
w 1432 0.5
w 1433 0.5
w 1434 0.5
w 1435 0.5
w 1436 0.5
w 1437 0.5
w 1438 0.5
w 1439 0.5
w 1440 0.5
w 1441 0.5
w 1442 0.5
w 1443 0.5
w 1444 0.5
w 1445 0.5
w 1446 0.5
w 1447 0.5
w 1448 0.5
w 1449 0.5
w 1450 0.5
w 1451 0.5
w 1452 0.5
w 1453 0.5
w 1454 0.5
w 1455 0.5
w 1456 0.5
w 1457 0.5
w 1458 0.5
w 1459 0.5
w 1460 0.5
w 1461 0.1746521375361527
w 1462 0.5
w 1463 0.5
w 1464 0.5
w 1465 0.5
w 1466 0.5
w 1467 0.5
w 1468 0.5
w 1469 0.5
w 1470 0.5
w 1471 0.5
w 1472 0.5
w 1473 0.21291595845087571
w 1474 0.5
w 1475 0.5
w 1476 0.5
w 1477 0.5
w 1478 0.5
w 1479 0.5
w 1480 0.5
w 1481 0.5
w 1482 0.5
w 1483 0.5
w 1484 0.5
w 1485 0.5
w 1486 0.5
w 1487 0.5
w 1488 0.5
w 1489 0.5
w 1490 0.5
w 1491 0.5
w 1492 0.5
w 1493 0.5
w 1494 0.5
w 1495 0.5
w 1496 0.5
w 1497 0.5
w 1498 0.5
w 1499 0.5
w 1500 0.5
w 1501 0.5
w 1502 0.5
w 1503 0.5
w 1504 0.5
w 1505 0.5
w 1506 0.5
w 1507 0.5
w 1508 0.5
w 1509 0.5
w 1510 0.5
w 1511 0.5
w 1512 0.3682305331929581
w 1513 0.5
w 1514 0.5
w 1515 0.5
w 1516 0.5
w 1517 0.5
w 1518 0.5
w 1519 0.5
w 1520 0.5
w 1521 0.5
w 1522 0.5
w 1523 0.5
w 1524 0.5
w 1525 0.5
w 1526 0.5
w 1527 0.5
w 1528 0.5
w 1529 0.5
w 1530 0.5
w 1531 0.5
w 1532 0.5
w 1533 0.5
w 1534 0.5
w 1535 0.5
w 1536 0.5792951829735943
w 1537 0.5
w 1538 0.5
w 1539 0.5
w 1540 0.5
w 1541 0.5
w 1542 0.5
w 1543 0.5
w 1544 0.5
w 1545 0.5
w 1546 0.5
w 1547 0.5
w 1548 0.5
w 1549 0.5
w 1550 0.5
w 1551 0.5
w 1552 0.5
w 1553 0.5
w 1554 0.5
w 1555 0.5
w 1556 0.5
w 1557 0.5
w 1558 0.5
w 1559 0.5
w 1560 0.5
w 1561 0.5
w 1562 0.5
w 1563 0.5
w 1564 0.5
w 1565 0.5
w 1566 0.5
w 1567 0.5
w 1568 0.5
w 1569 0.5
w 1570 0.5
w 1571 0.5
w 1572 0.5
w 1573 0.5
w 1574 0.5
w 1575 0.5
w 1576 0.5
w 1577 0.5
w 1578 0.5
w 1579 0.5
w 1580 0.5
w 1581 0.5
w 1582 0.5
w 1583 0.5
w 1584 0.5
w 1585 0.5
w 1586 0.5
w 1587 0.5
w 1588 0.5
w 1589 0.5
w 1590 0.5
w 1591 0.5
w 1592 0.5
w 1593 0.5
w 1594 0.5
w 1595 0.5
w 1596 0.5
w 1597 0.5
w 1598 0.5
w 1599 0.5
w 1600 0.5
w 1601 0.5
w 1602 0.5
w 1603 0.5
w 1604 0.5
w 1605 0.5
w 1606 0.5
w 1607 0.5
w 1608 0.5
w 1609 0.5
w 1610 0.5
w 1611 0.4820932856629589
w 1612 0.5
w 1613 0.5
w 1614 0.5
w 1615 0.5
w 1616 0.5
w 1617 0.5
w 1618 0.5
w 1619 0.5
w 1620 0.5
w 1621 0.5
w 1622 0.5
w 1623 0.5
w 1624 0.5
w 1625 0.5
w 1626 0.5
w 1627 0.5
w 1628 0.5
w 1629 0.5
w 1630 0.5
w 1631 0.5
w 1632 0.5
w 1633 0.5
w 1634 0.5
w 1635 0.5
w 1636 0.5
w 1637 0.5
w 1638 0.5
w 1639 0.5
w 1640 0.5
w 1641 0.5
w 1642 0.5
w 1643 0.5
w 1644 0.5
w 1645 0.5
w 1646 0.5
w 1647 0.5
w 1648 0.5
w 1649 0.5
w 1650 0.5
w 1651 0.5
w 1652 0.5
w 1653 0.5
w 1654 0.5
w 1655 0.5
w 1656 0.5
w 1657 0.5
w 1658 0.5
w 1659 0.5
w 1660 0.5
w 1661 0.5
w 1662 0.5
w 1663 0.5
w 1664 0.5
w 1665 0.5
w 1666 0.5
w 1667 0.5
w 1668 0.5
w 1669 0.5
w 1670 0.5
w 1671 0.5
w 1672 0.5
w 1673 0.5
w 1674 0.5
w 1675 0.5
w 1676 0.5
w 1677 0.5
w 1678 0.5
w 1679 0.5
w 1680 0.5
w 1681 0.5
w 1682 0.5
w 1683 0.5
w 1684 0.5
w 1685 0.5
w 1686 0.5
w 1687 0.5
w 1688 0.5
w 1689 0.5
w 1690 0.5
w 1691 0.5
w 1692 0.5
w 1693 0.5
w 1694 0.5
w 1695 0.5
w 1696 0.5
w 1697 0.5
w 1698 0.5
w 1699 0.5
w 1700 0.5
w 1701 0.5
w 1702 0.5
w 1703 0.5
w 1704 0.5
w 1705 0.5
w 1706 0.5
w 1707 0.5
w 1708 0.5
w 1709 0.5
w 1710 0.5
w 1711 0.5
w 1712 0.5
w 1713 0.5
w 1714 0.5
w 1715 0.7739666675671011
w 1716 0.5
w 1717 0.5
w 1718 0.5
w 1719 0.5
w 1720 0.5
w 1721 0.5
w 1722 0.5
w 1723 0.5
w 1724 0.5
w 1725 0.5
w 1726 0.5
w 1727 0.5
w 1728 0.5
w 1729 0.5
w 1730 0.5
w 1731 0.5
w 1732 0.5
w 1733 0.5
w 1734 0.5
w 1735 0.6601086764935576
w 1736 0.5
w 1737 0.5
w 1738 0.5
w 1739 0.5
w 1740 0.5
w 1741 0.5
w 1742 0.5
w 1743 0.5
w 1744 0.5
w 1745 0.5
w 1746 0.5
w 1747 0.5
w 1748 0.5
w 1749 0.5
w 1750 0.5
w 1751 0.5
w 1752 0.5
w 1753 0.5
w 1754 0.5
w 1755 0.5
w 1756 0.5
w 1757 0.5
w 1758 0.6601201358313663
w 1759 0.5
w 1760 0.5
w 1761 0.5
w 1762 0.5
w 1763 0.5
w 1764 0.5
w 1765 0.5
w 1766 0.5
w 1767 0.5
w 1768 0.5
w 1769 0.5
w 1770 0.5
w 1771 0.5
w 1772 0.5
w 1773 0.5
w 1774 0.5
w 1775 0.5
w 1776 0.5
w 1777 0.5
w 1778 0.5
w 1779 0.5
w 1780 0.5
w 1781 0.5
w 1782 0.5
w 1783 0.5
w 1784 0.5
w 1785 0.5
w 1786 0.5
w 1787 0.5
w 1788 0.5
w 1789 0.5
w 1790 0.5
w 1791 0.5
w 1792 0.5
w 1793 0.5
w 1794 0.5
w 1795 0.5
w 1796 0.5
w 1797 0.5
w 1798 0.5
w 1799 0.5
w 1800 0.2583202703375056
w 1801 0.5
w 1802 0.5
w 1803 0.5
w 1804 0.5
w 1805 0.5
w 1806 0.5
w 1807 0.5
w 1808 0.5
w 1809 0.5
w 1810 0.5
w 1811 0.5
w 1812 0.5
w 1813 0.5
w 1814 0.5
w 1815 0.5
w 1816 0.5
w 1817 0.4154061986026377
w 1818 0.5
w 1819 0.5
w 1820 0.5
w 1821 0.5
w 1822 0.5
w 1823 0.5
w 1824 0.7254888916293456
w 1825 0.5
w 1826 0.5
w 1827 0.5
w 1828 0.1392697689251231
w 1829 0.5
w 1830 0.5
w 1831 0.5
w 1832 0.5
w 1833 0.5
w 1834 0.5
w 1835 0.5
w 1836 0.5
w 1837 0.5
w 1838 0.5
w 1839 0.5
w 1840 0.5
w 1841 0.5
w 1842 0.5
w 1843 0.5
w 1844 0.5
w 1845 0.5
w 1846 0.5
w 1847 0.5
w 1848 0.5
w 1849 0.5
w 1850 0.5
w 1851 0.5
w 1852 0.5
w 1853 0.5
w 1854 0.5
w 1855 0.5
w 1856 0.5
w 1857 0.5
w 1858 0.5
w 1859 0.5
w 1860 0.5
w 1861 0.5
w 1862 0.5
w 1863 0.5
w 1864 0.5
w 1865 0.5
w 1866 0.19786870357032577
w 1867 0.5
w 1868 0.5
w 1869 0.5
w 1870 0.5
w 1871 0.5
w 1872 0.5
w 1873 0.5
w 1874 0.5
w 1875 0.5
w 1876 0.5
w 1877 0.5
w 1878 0.5
w 1879 0.5
w 1880 0.5
w 1881 0.5
w 1882 0.5
w 1883 0.5
w 1884 0.5
w 1885 0.5
w 1886 0.5
w 1887 0.5
w 1888 0.5
w 1889 0.5
w 1890 0.5
w 1891 0.5
w 1892 0.5
w 1893 0.5
w 1894 0.5
w 1895 0.5
w 1896 0.5
w 1897 0.5
w 1898 0.5
w 1899 0.5
w 1900 0.5
w 1901 0.5
w 1902 0.5
w 1903 0.5
w 1904 0.5
w 1905 0.5
w 1906 0.5
w 1907 0.5
w 1908 0.5
w 1909 0.5
w 1910 0.5
w 1911 0.5
w 1912 0.5
w 1913 0.5
w 1914 0.5
w 1915 0.5
w 1916 0.5
w 1917 0.5
w 1918 0.5
w 1919 0.5
w 1920 0.5
w 1921 0.5
w 1922 0.5
w 1923 0.5
w 1924 0.5
w 1925 0.5
w 1926 0.5
w 1927 0.5
w 1928 0.5
w 1929 0.5
w 1930 0.5
w 1931 0.5
w 1932 0.5
w 1933 0.5808644985506788
w 1934 0.5
w 1935 0.5
w 1936 0.5
w 1937 0.5
w 1938 0.5
w 1939 0.5
w 1940 0.5
w 1941 0.5
w 1942 0.5
w 1943 0.5
w 1944 0.5
w 1945 0.5
w 1946 0.5
w 1947 0.5
w 1948 0.5
w 1949 0.5
w 1950 0.5
w 1951 0.38157167358165234
w 1952 0.5
w 1953 0.5
w 1954 0.5
w 1955 0.5
w 1956 0.5
w 1957 0.5
w 1958 0.35318140087854133
w 1959 0.5
w 1960 0.5
w 1961 0.5
w 1962 0.5
w 1963 0.5
w 1964 0.5
w 1965 0.5
w 1966 0.5
w 1967 0.5
w 1968 0.5
w 1969 0.5
w 1970 0.5
w 1971 0.5
w 1972 0.5
w 1973 0.5
w 1974 0.5
w 1975 0.5
w 1976 0.5
w 1977 0.5
w 1978 0.5
w 1979 0.5
w 1980 0.5
w 1981 0.5
w 1982 0.5
w 1983 0.5
w 1984 0.22315365873438675
w 1985 0.5
w 1986 0.5
w 1987 0.5
w 1988 0.5
w 1989 0.5
w 1990 0.5
w 1991 0.5
w 1992 0.5
w 1993 0.5
w 1994 0.5
w 1995 0.5623356504436765
w 1996 0.5
w 1997 0.5
w 1998 0.5
w 1999 0.5
w 2000 0.5
w 2001 0.5
w 2002 0.5
w 2003 0.5
w 2004 0.5
w 2005 0.5
w 2006 0.5
w 2007 0.5
w 2008 0.5
w 2009 0.5
w 2010 0.5
w 2011 0.5
w 2012 0.5
w 2013 0.5
w 2014 0.5
w 2015 0.5
w 2016 0.5
w 2017 0.5
w 2018 0.5
w 2019 0.21777914792968497
w 2020 0.5
w 2021 0.5
w 2022 0.5
w 2023 0.5
w 2024 0.5
w 2025 0.5
w 2026 0.5
w 2027 0.5
w 2028 0.5
w 2029 0.5
w 2030 0.5
w 2031 0.5
w 2032 0.5
w 2033 0.5
w 2034 0.5
w 2035 0.5
w 2036 0.5
w 2037 0.5
w 2038 0.5
w 2039 0.5
w 2040 0.5
w 2041 0.7166743849455678
w 2042 0.5
w 2043 0.5
w 2044 0.5
w 2045 0.5
w 2046 0.5
w 2047 0.5
w 2048 0.5
w 2049 0.5
w 2050 0.5
w 2051 0.5
w 2052 0.5
w 2053 0.5
w 2054 0.5
w 2055 0.5
w 2056 0.5
w 2057 0.5
w 2058 0.5
w 2059 0.5
w 2060 0.5
w 2061 0.5
w 2062 0.5
w 2063 0.5
w 2064 0.5
w 2065 0.5
w 2066 0.5
w 2067 0.5
w 2068 0.5
w 2069 0.5
w 2070 0.5
w 2071 0.5
w 2072 0.5
w 2073 0.5
w 2074 0.5
w 2075 0.5
w 2076 0.5
w 2077 0.5
w 2078 0.5
w 2079 0.5
w 2080 0.5
w 2081 0.5
w 2082 0.5
w 2083 0.5
w 2084 0.5
w 2085 0.5
w 2086 0.5
w 2087 0.5
w 2088 0.5
w 2089 0.5
w 2090 0.5
w 2091 0.5
w 2092 0.5
w 2093 0.5
w 2094 0.5
w 2095 0.5
w 2096 0.5
w 2097 0.4647048768139062
w 2098 0.5
w 2099 0.5
w 2100 0.5
w 2101 0.5
w 2102 0.5
w 2103 0.5
w 2104 0.5
w 2105 0.5
w 2106 0.5
w 2107 0.5
w 2108 0.5
w 2109 0.5
w 2110 0.5
w 2111 0.5
w 2112 0.5
w 2113 0.5
w 2114 0.5
w 2115 0.5
w 2116 0.5
w 2117 0.5
w 2118 0.5
w 2119 0.5
w 2120 0.42887931312842525
w 2121 0.5
w 2122 0.8769537380817941
w 2123 0.5
w 2124 0.5
w 2125 0.5
w 2126 0.5
w 2127 0.5
w 2128 0.5
w 2129 0.5
w 2130 0.5
w 2131 0.5
w 2132 0.5
w 2133 0.5
w 2134 0.5
w 2135 0.5
w 2136 0.5
w 2137 0.5
w 2138 0.5
w 2139 0.5
w 2140 0.5
w 2141 0.5
w 2142 0.5
w 2143 0.5
w 2144 0.5
w 2145 0.5
w 2146 0.5
w 2147 0.5
w 2148 0.5
w 2149 0.5
w 2150 0.5
w 2151 0.5
w 2152 0.5
w 2153 0.5
w 2154 0.5
w 2155 0.5
w 2156 0.5
w 2157 0.5
w 2158 0.5
w 2159 0.5
w 2160 0.5
w 2161 0.34507580458616166
w 2162 0.5
w 2163 0.5
w 2164 0.5
w 2165 0.5
w 2166 0.8752429625942721
w 2167 0.5
w 2168 0.5
w 2169 0.5
w 2170 0.5
w 2171 0.5
w 2172 0.5
w 2173 0.5
w 2174 0.5
w 2175 0.7061750749449267
w 2176 0.5
w 2177 0.5
w 2178 0.5
w 2179 0.5
w 2180 0.5
w 2181 0.5
w 2182 0.5
w 2183 0.5
w 2184 0.5
w 2185 0.5
w 2186 0.5168571264408889
w 2187 0.2612114696399467
w 2188 0.5
w 2189 0.5
w 2190 0.5
w 2191 0.5
w 2192 0.5
w 2193 0.5
w 2194 0.5
w 2195 0.5
w 2196 0.5
w 2197 0.5
w 2198 0.5
w 2199 0.5
w 2200 0.5
w 2201 0.5
w 2202 0.5
w 2203 0.5
w 2204 0.5
w 2205 0.5
w 2206 0.5
w 2207 0.5
w 2208 0.5
w 2209 0.5
w 2210 0.5
w 2211 0.2366803735229638
w 2212 0.5
w 2213 0.5
w 2214 0.5
w 2215 0.5
w 2216 0.5
w 2217 0.5
w 2218 0.5
w 2219 0.5
w 2220 0.5
w 2221 0.5
w 2222 0.5
w 2223 0.5
w 2224 0.5
w 2225 0.5
w 2226 0.5
w 2227 0.5
w 2228 0.5
w 2229 0.5
w 2230 0.5
w 2231 0.5
w 2232 0.5
w 2233 0.5
w 2234 0.5
w 2235 0.7410136953993657
w 2236 0.5
w 2237 0.5
w 2238 0.5
w 2239 0.5
w 2240 0.5
w 2241 0.5
w 2242 0.5
w 2243 0.5
w 2244 0.30385907176761473
w 2245 0.5
w 2246 0.5
w 2247 0.5
w 2248 0.5
w 2249 0.5
w 2250 0.5
w 2251 0.5
w 2252 0.5
w 2253 0.5
w 2254 0.5
w 2255 0.5
w 2256 0.5
w 2257 0.5
w 2258 0.5
w 2259 0.5
w 2260 0.5
w 2261 0.5
w 2262 0.5
w 2263 0.5
w 2264 0.5
w 2265 0.5
w 2266 0.5
w 2267 0.5
w 2268 0.5
w 2269 0.5
w 2270 0.5
w 2271 0.5
w 2272 0.5
w 2273 0.5
w 2274 0.5
w 2275 0.5
w 2276 0.5
w 2277 0.5
w 2278 0.5
w 2279 0.5
w 2280 0.5
w 2281 0.5
w 2282 0.5
w 2283 0.5
w 2284 0.5
w 2285 0.5
w 2286 0.5
w 2287 0.5
w 2288 0.5
w 2289 0.5
w 2290 0.5
w 2291 0.5
w 2292 0.5
w 2293 0.5
w 2294 0.5
w 2295 0.5
w 2296 0.5
w 2297 0.5
w 2298 0.5
w 2299 0.5
w 2300 0.5
w 2301 0.5
w 2302 0.5
w 2303 0.5
w 2304 0.5
w 2305 0.5
w 2306 0.5
w 2307 0.5
w 2308 0.5
w 2309 0.5
w 2310 0.5
w 2311 0.5
w 2312 0.5
w 2313 0.5
w 2314 0.5
w 2315 0.5
w 2316 0.5
w 2317 0.5
w 2318 0.5
w 2319 0.5
w 2320 0.5
w 2321 0.5
w 2322 0.5
w 2323 0.5
w 2324 0.5
w 2325 0.5
w 2326 0.5
w 2327 0.5
w 2328 0.5
w 2329 0.5
w 2330 0.5
w 2331 0.5
w 2332 0.5
w 2333 0.5
w 2334 0.5
w 2335 0.6291287237164478
w 2336 0.5
w 2337 0.5
w 2338 0.5
w 2339 0.5
w 2340 0.5
w 2341 0.5
w 2342 0.5
w 2343 0.5
w 2344 0.5
w 2345 0.5
w 2346 0.5
w 2347 0.5
w 2348 0.5
w 2349 0.5
w 2350 0.5
w 2351 0.5
w 2352 0.5
w 2353 0.5
w 2354 0.5
w 2355 0.5
w 2356 0.5
w 2357 0.5
w 2358 0.5
w 2359 0.5
w 2360 0.5
w 2361 0.5
w 2362 0.5
w 2363 0.5
w 2364 0.5
w 2365 0.5
w 2366 0.5
w 2367 0.5
w 2368 0.5
w 2369 0.5
w 2370 0.5
w 2371 0.5
w 2372 0.5
w 2373 0.5
w 2374 0.5
w 2375 0.5
w 2376 0.5
w 2377 0.6531721809369552
w 2378 0.5
w 2379 0.5
w 2380 0.5
w 2381 0.5
w 2382 0.5
w 2383 0.5
w 2384 0.5
w 2385 0.5
w 2386 0.5
w 2387 0.5
w 2388 0.5
w 2389 0.5
w 2390 0.5
w 2391 0.5
w 2392 0.5
w 2393 0.5
w 2394 0.5
w 2395 0.5
w 2396 0.5
w 2397 0.5
w 2398 0.5
w 2399 0.5
w 2400 0.5
w 2401 0.5
w 2402 0.5
w 2403 0.5
w 2404 0.5
w 2405 0.5
w 2406 0.5
w 2407 0.5
w 2408 0.5
w 2409 0.5
w 2410 0.36619079410743394
w 2411 0.5
w 2412 0.5
w 2413 0.5
w 2414 0.5
w 2415 0.5
w 2416 0.5
w 2417 0.5
w 2418 0.5
w 2419 0.5
w 2420 0.5
w 2421 0.5
w 2422 0.5
w 2423 0.5
w 2424 0.5
w 2425 0.5
w 2426 0.5
w 2427 0.5
w 2428 0.5
w 2429 0.5
w 2430 0.5
w 2431 0.5
w 2432 0.5
w 2433 0.5
w 2434 0.5
w 2435 0.5
w 2436 0.5
w 2437 0.5
w 2438 0.5
w 2439 0.5
w 2440 0.5
w 2441 0.5
w 2442 0.5
w 2443 0.5
w 2444 0.5
w 2445 0.5
w 2446 0.5
w 2447 0.5
w 2448 0.5
w 2449 0.5
w 2450 0.5
w 2451 0.5
w 2452 0.5
w 2453 0.5
w 2454 0.5
w 2455 0.5
w 2456 0.5
w 2457 0.5
w 2458 0.1498779073774855
w 2459 0.5
w 2460 0.5
w 2461 0.5
w 2462 0.5
w 2463 0.5
w 2464 0.5
w 2465 0.5
w 2466 0.5
w 2467 0.5
w 2468 0.5
w 2469 0.5
w 2470 0.5
w 2471 0.5
w 2472 0.5
w 2473 0.5
w 2474 0.5
w 2475 0.5
w 2476 0.5
w 2477 0.5
w 2478 0.5
w 2479 0.5
w 2480 0.5
w 2481 0.5
w 2482 0.5
w 2483 0.5
w 2484 0.5
w 2485 0.5
w 2486 0.5
w 2487 0.5
w 2488 0.5
w 2489 0.5
w 2490 0.5
w 2491 0.5
w 2492 0.5
w 2493 0.5
w 2494 0.5
w 2495 0.5
w 2496 0.5
w 2497 0.5
w 2498 0.5
w 2499 0.5
w 2500 0.5
w 2501 0.5
w 2502 0.5
w 2503 0.5
w 2504 0.5
w 2505 0.5
w 2506 0.5
w 2507 0.5
w 2508 0.5
w 2509 0.5
w 2510 0.5
w 2511 0.5
w 2512 0.5
w 2513 0.5
w 2514 0.5
w 2515 0.5
w 2516 0.5
w 2517 0.5
w 2518 0.5
w 2519 0.5
w 2520 0.5
w 2521 0.5
w 2522 0.5
w 2523 0.5
w 2524 0.5
w 2525 0.5
w 2526 0.5
w 2527 0.5
w 2528 0.5
w 2529 0.5
w 2530 0.5
w 2531 0.5
w 2532 0.5
w 2533 0.5
w 2534 0.5
w 2535 0.5
w 2536 0.5
w 2537 0.5
w 2538 0.5
w 2539 0.5
w 2540 0.5
w 2541 0.5
w 2542 0.5
w 2543 0.7568080889278078
w 2544 0.5
w 2545 0.5
w 2546 0.5
w 2547 0.5
w 2548 0.5
w 2549 0.5
w 2550 0.5
w 2551 0.5
w 2552 0.5
w 2553 0.5
w 2554 0.5
w 2555 0.5
w 2556 0.5
w 2557 0.5
w 2558 0.5
w 2559 0.5
w 2560 0.5
w 2561 0.5
w 2562 0.5
w 2563 0.5
w 2564 0.5
w 2565 0.5
w 2566 0.5
w 2567 0.5
w 2568 0.5
w 2569 0.5
w 2570 0.5
w 2571 0.5
w 2572 0.5
w 2573 0.5
w 2574 0.5
w 2575 0.2479904656818814
w 2576 0.5
w 2577 0.5
w 2578 0.5
w 2579 0.5
w 2580 0.5
w 2581 0.5
w 2582 0.5
w 2583 0.5
w 2584 0.5
w 2585 0.5
w 2586 0.5
w 2587 0.5
w 2588 0.5
w 2589 0.5
w 2590 0.5
w 2591 0.5
w 2592 0.5
w 2593 0.5
w 2594 0.5
w 2595 0.5
w 2596 0.5
w 2597 0.5
w 2598 0.5
w 2599 0.5
w 2600 0.5
w 2601 0.5
w 2602 0.5
w 2603 0.5
w 2604 0.5
w 2605 0.5
w 2606 0.5
w 2607 0.1819983259734078
w 2608 0.5
w 2609 0.5
w 2610 0.5
w 2611 0.5
w 2612 0.5
w 2613 0.5
w 2614 0.5
w 2615 0.5
w 2616 0.5
w 2617 0.5
w 2618 0.5
w 2619 0.5
w 2620 0.5
w 2621 0.5
w 2622 0.5
w 2623 0.5
w 2624 0.5
w 2625 0.5
w 2626 0.24254289489138406
w 2627 0.5
w 2628 0.5
w 2629 0.5
w 2630 0.7266164302139807
w 2631 0.5
w 2632 0.5
w 2633 0.5
w 2634 0.5
w 2635 0.5
w 2636 0.5
w 2637 0.5
w 2638 0.5
w 2639 0.5
w 2640 0.5
w 2641 0.5
w 2642 0.5
w 2643 0.5
w 2644 0.5
w 2645 0.5
w 2646 0.5
w 2647 0.5
w 2648 0.5
w 2649 0.5
w 2650 0.5
w 2651 0.5
w 2652 0.5
w 2653 0.5
w 2654 0.5
w 2655 0.5
w 2656 0.5
w 2657 0.5
w 2658 0.5
w 2659 0.5
w 2660 0.5
w 2661 0.5
w 2662 0.5
w 2663 0.5
w 2664 0.5
w 2665 0.5
w 2666 0.5
w 2667 0.5
w 2668 0.5
w 2669 0.5
w 2670 0.6997163049910777
w 2671 0.5
w 2672 0.5
w 2673 0.5
w 2674 0.5
w 2675 0.5
w 2676 0.5
w 2677 0.5
w 2678 0.3299708757197677
w 2679 0.5
w 2680 0.5
w 2681 0.5
w 2682 0.5
w 2683 0.5
w 2684 0.5
w 2685 0.5
w 2686 0.5
w 2687 0.5
w 2688 0.5
w 2689 0.5
w 2690 0.5
w 2691 0.5
w 2692 0.5
w 2693 0.5
w 2694 0.5
w 2695 0.5
w 2696 0.5
w 2697 0.5
w 2698 0.5
w 2699 0.5
w 2700 0.5
w 2701 0.5
w 2702 0.5
w 2703 0.5
w 2704 0.7077876063879838
w 2705 0.5
w 2706 0.5
w 2707 0.5
w 2708 0.5
w 2709 0.5
w 2710 0.5
w 2711 0.5
w 2712 0.5
w 2713 0.5
w 2714 0.5
w 2715 0.5
w 2716 0.5
w 2717 0.5
w 2718 0.5
w 2719 0.5
w 2720 0.5
w 2721 0.5
w 2722 0.5
w 2723 0.5
w 2724 0.5
w 2725 0.8734560663021577
w 2726 0.5
w 2727 0.5
w 2728 0.5
w 2729 0.5
w 2730 0.5
w 2731 0.5
w 2732 0.5
w 2733 0.5
w 2734 0.5
w 2735 0.5
w 2736 0.5
w 2737 0.5
w 2738 0.5
w 2739 0.5
w 2740 0.5
w 2741 0.5
w 2742 0.5
w 2743 0.5
w 2744 0.5
w 2745 0.5
w 2746 0.5
w 2747 0.5
w 2748 0.5
w 2749 0.5
w 2750 0.5
w 2751 0.5
w 2752 0.5
w 2753 0.5
w 2754 0.5
w 2755 0.5
w 2756 0.5
w 2757 0.5
w 2758 0.5
w 2759 0.5
w 2760 0.5
w 2761 0.5
w 2762 0.5
w 2763 0.5
w 2764 0.5
w 2765 0.5
w 2766 0.5
w 2767 0.5
w 2768 0.5
w 2769 0.5
w 2770 0.5
w 2771 0.5
w 2772 0.5
w 2773 0.5
w 2774 0.5
w 2775 0.5
w 2776 0.5
w 2777 0.5
w 2778 0.5
w 2779 0.5
w 2780 0.7147612018335052
w 2781 0.5
w 2782 0.5
w 2783 0.5
w 2784 0.5
w 2785 0.5
w 2786 0.5
w 2787 0.5
w 2788 0.5
w 2789 0.5
w 2790 0.5
w 2791 0.5
w 2792 0.5
w 2793 0.5
w 2794 0.5
w 2795 0.5
w 2796 0.5
w 2797 0.5
w 2798 0.5
w 2799 0.5
w 2800 0.5
w 2801 0.5
w 2802 0.5
w 2803 0.5
w 2804 0.5
w 2805 0.5
w 2806 0.5
w 2807 0.5
w 2808 0.5
w 2809 0.5
w 2810 0.5
w 2811 0.5
w 2812 0.5
w 2813 0.5
w 2814 0.5
w 2815 0.5
w 2816 0.5
w 2817 0.5
w 2818 0.5
w 2819 0.5
w 2820 0.5
w 2821 0.5
w 2822 0.5
w 2823 0.5
w 2824 0.5
w 2825 0.5
w 2826 0.5
w 2827 0.5
w 2828 0.5
w 2829 0.5
w 2830 0.5
w 2831 0.5
w 2832 0.5
w 2833 0.5
w 2834 0.5
w 2835 0.5
w 2836 0.5
w 2837 0.5
w 2838 0.5
w 2839 0.5
w 2840 0.5
w 2841 0.5
w 2842 0.5
w 2843 0.5
w 2844 0.5
w 2845 0.5
w 2846 0.5
w 2847 0.5
w 2848 0.5
w 2849 0.5
w 2850 0.5
w 2851 0.5
w 2852 0.5
w 2853 0.5
w 2854 0.5
w 2855 0.5
w 2856 0.5
w 2857 0.5
w 2858 0.5
w 2859 0.5
w 2860 0.5
w 2861 0.5
w 2862 0.5
w 2863 0.5
w 2864 0.5
w 2865 0.5
w 2866 0.5
w 2867 0.5
w 2868 0.5
w 2869 0.5
w 2870 0.5
w 2871 0.5
w 2872 0.5
w 2873 0.5
w 2874 0.5
w 2875 0.5
w 2876 0.43427377597718825
w 2877 0.5
w 2878 0.5
w 2879 0.5
w 2880 0.5
w 2881 0.5
w 2882 0.5
w 2883 0.5
w 2884 0.5
w 2885 0.5
w 2886 0.5
w 2887 0.5
w 2888 0.5
w 2889 0.5
w 2890 0.5
w 2891 0.5
w 2892 0.5
w 2893 0.5
w 2894 0.5
w 2895 0.5
w 2896 0.5
w 2897 0.5
w 2898 0.5
w 2899 0.5
w 2900 0.5
w 2901 0.5
w 2902 0.5
w 2903 0.5
w 2904 0.5
w 2905 0.5
w 2906 0.5
w 2907 0.5
w 2908 0.5
w 2909 0.5
w 2910 0.5
w 2911 0.5
w 2912 0.5
w 2913 0.5
w 2914 0.5
w 2915 0.5
w 2916 0.5
w 2917 0.5
w 2918 0.5
w 2919 0.5
w 2920 0.5
w 2921 0.5
w 2922 0.5
w 2923 0.5
w 2924 0.5
w 2925 0.5
w 2926 0.8671905325331375
w 2927 0.5
w 2928 0.5
w 2929 0.5
w 2930 0.5
w 2931 0.5
w 2932 0.5
w 2933 0.5
w 2934 0.5
w 2935 0.5
w 2936 0.5
w 2937 0.5
w 2938 0.5
w 2939 0.5
w 2940 0.5
w 2941 0.5
w 2942 0.19055329584815708
w 2943 0.5
w 2944 0.5
w 2945 0.5
w 2946 0.5
w 2947 0.5
w 2948 0.5
w 2949 0.5
w 2950 0.5
w 2951 0.5
w 2952 0.5
w 2953 0.5
w 2954 0.8106992859552442
w 2955 0.5
w 2956 0.5
w 2957 0.5
w 2958 0.5
w 2959 0.5
w 2960 0.5
w 2961 0.5
w 2962 0.5
w 2963 0.5
w 2964 0.5
w 2965 0.5
w 2966 0.5
w 2967 0.5
w 2968 0.5
w 2969 0.5
w 2970 0.5
w 2971 0.5
w 2972 0.5
w 2973 0.5
w 2974 0.5
w 2975 0.5
w 2976 0.5
w 2977 0.5
w 2978 0.5
w 2979 0.5
w 2980 0.5
w 2981 0.5
w 2982 0.5
w 2983 0.5
w 2984 0.5
w 2985 0.5
w 2986 0.5
w 2987 0.5
w 2988 0.5
w 2989 0.5
w 2990 0.5
w 2991 0.5
w 2992 0.5
w 2993 0.5
w 2994 0.5
w 2995 0.5
w 2996 0.5
w 2997 0.5
w 2998 0.5
w 2999 0.5
w 3000 0.5
w 3001 0.5
w 3002 0.5
w 3003 0.5
w 3004 0.5
w 3005 0.5
w 3006 0.5
w 3007 0.5
w 3008 0.5
w 3009 0.5
w 3010 0.5
w 3011 0.5
w 3012 0.5
w 3013 0.5
w 3014 0.5
w 3015 0.7946487003035404
w 3016 0.5
w 3017 0.5
w 3018 0.5
w 3019 0.5
w 3020 0.5
w 3021 0.5
w 3022 0.5
w 3023 0.5
w 3024 0.5
w 3025 0.5
w 3026 0.5
w 3027 0.5
w 3028 0.5
w 3029 0.5
w 3030 0.5
w 3031 0.5
w 3032 0.5
w 3033 0.5
w 3034 0.13998516649341883
w 3035 0.230213887712826
w 3036 0.5
w 3037 0.5
w 3038 0.5
w 3039 0.5
w 3040 0.5
w 3041 0.5
w 3042 0.5
w 3043 0.5
w 3044 0.5
w 3045 0.5
w 3046 0.5
w 3047 0.5
w 3048 0.5
w 3049 0.5
w 3050 0.5
w 3051 0.5
w 3052 0.5
w 3053 0.5
w 3054 0.6511893022601046
w 3055 0.5
w 3056 0.5
w 3057 0.5
w 3058 0.5
w 3059 0.5
w 3060 0.5
w 3061 0.5
w 3062 0.5
w 3063 0.5
w 3064 0.5
w 3065 0.5
w 3066 0.5
w 3067 0.5
w 3068 0.7847782020116679
w 3069 0.5
w 3070 0.5
w 3071 0.5
w 3072 0.5
w 3073 0.5
w 3074 0.5
w 3075 0.5
w 3076 0.5
w 3077 0.5
w 3078 0.5
w 3079 0.6040662364178035
w 3080 0.5
w 3081 0.5
w 3082 0.5
w 3083 0.5
w 3084 0.5
w 3085 0.5
w 3086 0.5
w 3087 0.5
w 3088 0.5
w 3089 0.5
w 3090 0.5
w 3091 0.5
w 3092 0.5
w 3093 0.5
w 3094 0.5
w 3095 0.5
w 3096 0.5
w 3097 0.5
w 3098 0.5
w 3099 0.5
w 3100 0.5
w 3101 0.5
w 3102 0.5
w 3103 0.5
w 3104 0.5
w 3105 0.5
w 3106 0.5
w 3107 0.5
w 3108 0.5
w 3109 0.5
w 3110 0.5
w 3111 0.5
w 3112 0.5
w 3113 0.5278296530516742
w 3114 0.5
w 3115 0.5
w 3116 0.5
w 3117 0.5
w 3118 0.5
w 3119 0.5
w 3120 0.5
w 3121 0.5
w 3122 0.5
w 3123 0.5
w 3124 0.5
w 3125 0.7053456642315108
w 3126 0.5
w 3127 0.5
w 3128 0.5
w 3129 0.5
w 3130 0.5
w 3131 0.5
w 3132 0.5
w 3133 0.5
w 3134 0.5
w 3135 0.5
w 3136 0.5
w 3137 0.5
w 3138 0.5
w 3139 0.5
w 3140 0.5
w 3141 0.7775155847454869
w 3142 0.5
w 3143 0.5
w 3144 0.5
w 3145 0.5
w 3146 0.5
w 3147 0.5
w 3148 0.5
w 3149 0.5
w 3150 0.5
w 3151 0.5
w 3152 0.5
w 3153 0.5
w 3154 0.5
w 3155 0.6147216923639837
w 3156 0.5
w 3157 0.5
w 3158 0.5
w 3159 0.5
w 3160 0.5
w 3161 0.5
w 3162 0.5
w 3163 0.5
w 3164 0.5
w 3165 0.5
w 3166 0.5
w 3167 0.5
w 3168 0.5
w 3169 0.5
w 3170 0.5
w 3171 0.5
w 3172 0.5
w 3173 0.5
w 3174 0.5
w 3175 0.5
w 3176 0.5
w 3177 0.5
w 3178 0.5
w 3179 0.3771712875822293
w 3180 0.5
w 3181 0.5
w 3182 0.5
w 3183 0.5
w 3184 0.5
w 3185 0.5
w 3186 0.5
w 3187 0.5
w 3188 0.5
w 3189 0.5
w 3190 0.5
w 3191 0.5
-164 -3131 -1661 0
-164 -3131 -2657 0
-164 -3131 -2223 0
-164 -3131 -865 0
-164 -3131 1244 -2657 0
-164 -3131 -1244 2657 0
-164 -3131 1530 -865 0
-164 -3131 -1530 865 0
-164 -3131 1191 -1661 0
-164 -3131 -1191 1661 0
-164 -3131 2074 -2223 0
-164 -3131 -2074 2223 0
-164 3131 2052 0
-164 3131 1768 0
-164 3131 1098 0
-164 3131 2732 0
-164 3131 1244 -1768 0
-164 3131 -1244 1768 0
-164 3131 1530 -2732 0
-164 3131 -1530 2732 0
-164 3131 1191 -2052 0
-164 3131 -1191 2052 0
-164 3131 2074 -1098 0
-164 3131 -2074 1098 0
-164 840 0
-164 1494 -1244 0
-164 -1494 1244 0
-164 2401 -1530 0
-164 -2401 1530 0
-164 759 -1191 0
-164 -759 1191 0
-164 669 -2074 0
-164 -669 2074 0
164 -1591 -2493 0
164 -1591 -2125 0
164 -1591 2032 0
164 -1591 1303 0
164 -1591 2631 -2125 0
164 -1591 -2631 2125 0
164 -1591 993 -1303 0
164 -1591 -993 1303 0
164 -1591 1501 -2493 0
164 -1591 -1501 2493 0
164 -1591 652 -2032 0
164 -1591 -652 2032 0
164 1591 329 0
164 1591 2903 0
164 1591 -2250 0
164 1591 -1132 0
164 1591 2631 -2903 0
164 1591 -2631 2903 0
164 1591 993 -1132 0
164 1591 -993 1132 0
164 1591 1501 -329 0
164 1591 -1501 329 0
164 1591 652 -2250 0
164 1591 -652 2250 0
164 1429 0
164 1494 -2631 0
164 -1494 2631 0
164 2401 -993 0
164 -2401 993 0
164 759 -1501 0
164 -759 1501 0
164 669 -652 0
164 -669 652 0
-335 -1637 -504 0
-335 -1637 -2195 0
-335 -1637 -2855 0
-335 -1637 -1159 0
-335 -1637 1180 -2195 0
-335 -1637 -1180 2195 0
-335 -1637 1392 -1159 0
-335 -1637 -1392 1159 0
-335 -1637 1272 -504 0
-335 -1637 -1272 504 0
-335 -1637 1352 -2855 0
-335 -1637 -1352 2855 0
-335 1637 2503 0
-335 1637 877 0
-335 1637 1650 0
-335 1637 352 0
-335 1637 1180 -877 0
-335 1637 -1180 877 0
-335 1637 1392 -352 0
-335 1637 -1392 352 0
-335 1637 1272 -2503 0
-335 1637 -1272 2503 0
-335 1637 1352 -1650 0
-335 1637 -1352 1650 0
-335 2882 0
-335 530 -1180 0
-335 -530 1180 0
-335 340 -1392 0
-335 -340 1392 0
-335 1494 -1272 0
-335 -1494 1272 0
-335 240 -1352 0
-335 -240 1352 0
335 -1841 -2549 0
335 -1841 -2013 0
335 -1841 3140 0
335 -1841 210 0
335 -1841 1577 -2013 0
335 -1841 -1577 2013 0
335 -1841 2665 -210 0
335 -1841 -2665 210 0
335 -1841 1743 -2549 0
335 -1841 -1743 2549 0
335 -1841 1127 -3140 0
335 -1841 -1127 3140 0
335 1841 2337 0
335 1841 1474 0
335 1841 -875 0
335 1841 -144 0
335 1841 1577 -1474 0
335 1841 -1577 1474 0
335 1841 2665 -144 0
335 1841 -2665 144 0
335 1841 1743 -2337 0
335 1841 -1743 2337 0
335 1841 1127 -875 0
335 1841 -1127 875 0
335 580 0
335 530 -1577 0
335 -530 1577 0
335 340 -2665 0
335 -340 2665 0
335 1494 -1743 0
335 -1494 1743 0
335 240 -1127 0
335 -240 1127 0
-2780 -2427 -202 0
-2780 -2427 -3144 0
-2780 -2427 -3180 0
-2780 -2427 -1875 0
-2780 -2427 2042 -3144 0
-2780 -2427 -2042 3144 0
-2780 -2427 398 -1875 0
-2780 -2427 -398 1875 0
-2780 -2427 1689 -202 0
-2780 -2427 -1689 202 0
-2780 -2427 1402 -3180 0
-2780 -2427 -1402 3180 0
-2780 2427 365 0
-2780 2427 377 0
-2780 2427 209 0
-2780 2427 1673 0
-2780 2427 2042 -377 0
-2780 2427 -2042 377 0
-2780 2427 398 -1673 0
-2780 2427 -398 1673 0
-2780 2427 1689 -365 0
-2780 2427 -1689 365 0
-2780 2427 1402 -209 0
-2780 2427 -1402 209 0
-2780 2736 0
-2780 934 -2042 0
-2780 -934 2042 0
-2780 322 -398 0
-2780 -322 398 0
-2780 530 -1689 0
-2780 -530 1689 0
-2780 2273 -1402 0
-2780 -2273 1402 0
2780 -569 -1401 0
2780 -569 -615 0
2780 -569 32 0
2780 -569 915 0
2780 -569 509 -615 0
2780 -569 -509 615 0
2780 -569 2287 -915 0
2780 -569 -2287 915 0
2780 -569 1894 -1401 0
2780 -569 -1894 1401 0
2780 -569 481 -32 0
2780 -569 -481 32 0
2780 569 1261 0
2780 569 1772 0
2780 569 -382 0
2780 569 -115 0
2780 569 509 -1772 0
2780 569 -509 1772 0
2780 569 2287 -115 0
2780 569 -2287 115 0
2780 569 1894 -1261 0
2780 569 -1894 1261 0
2780 569 481 -382 0
2780 569 -481 382 0
2780 2759 0
2780 934 -509 0
2780 -934 509 0
2780 322 -2287 0
2780 -322 2287 0
2780 530 -1894 0
2780 -530 1894 0
2780 2273 -481 0
2780 -2273 481 0
-2607 -2755 -223 0
-2607 -2755 -2021 0
-2607 -2755 -417 0
-2607 -2755 -2373 0
-2607 -2755 100 -2021 0
-2607 -2755 -100 2021 0
-2607 -2755 1826 -2373 0
-2607 -2755 -1826 2373 0
-2607 -2755 1315 -223 0
-2607 -2755 -1315 223 0
-2607 -2755 268 -417 0
-2607 -2755 -268 417 0
-2607 2755 2002 0
-2607 2755 1902 0
-2607 2755 897 0
-2607 2755 2478 0
-2607 2755 100 -1902 0
-2607 2755 -100 1902 0
-2607 2755 1826 -2478 0
-2607 2755 -1826 2478 0
-2607 2755 1315 -2002 0
-2607 2755 -1315 2002 0
-2607 2755 268 -897 0
-2607 2755 -268 897 0
-2607 2685 0
-2607 3085 -100 0
-2607 -3085 100 0
-2607 692 -1826 0
-2607 -692 1826 0
-2607 934 -1315 0
-2607 -934 1315 0
-2607 670 -268 0
-2607 -670 268 0
2607 -278 -86 0
2607 -278 -1379 0
2607 -278 860 0
2607 -278 1766 0
2607 -278 1015 -1379 0
2607 -278 -1015 1379 0
2607 -278 1523 -1766 0
2607 -278 -1523 1766 0
2607 -278 2110 -86 0
2607 -278 -2110 86 0
2607 -278 2515 -860 0
2607 -278 -2515 860 0
2607 278 184 0
2607 278 2740 0
2607 278 -809 0
2607 278 -1608 0
2607 278 1015 -2740 0
2607 278 -1015 2740 0
2607 278 1523 -1608 0
2607 278 -1523 1608 0
2607 278 2110 -184 0
2607 278 -2110 184 0
2607 278 2515 -809 0
2607 278 -2515 809 0
2607 600 0
2607 3085 -1015 0
2607 -3085 1015 0
2607 692 -1523 0
2607 -692 1523 0
2607 934 -2110 0
2607 -934 2110 0
2607 670 -2515 0
2607 -670 2515 0
-2954 -1805 -1054 0
-2954 -1805 -938 0
-2954 -1805 -1163 0
-2954 -1805 -1185 0
-2954 -1805 3173 -938 0
-2954 -1805 -3173 938 0
-2954 -1805 3174 -1185 0
-2954 -1805 -3174 1185 0
-2954 -1805 76 -1054 0
-2954 -1805 -76 1054 0
-2954 -1805 1960 -1163 0
-2954 -1805 -1960 1163 0
-2954 1805 1740 0
-2954 1805 728 0
-2954 1805 219 0
-2954 1805 576 0
-2954 1805 3173 -728 0
-2954 1805 -3173 728 0
-2954 1805 3174 -576 0
-2954 1805 -3174 576 0
-2954 1805 76 -1740 0
-2954 1805 -76 1740 0
-2954 1805 1960 -219 0
-2954 1805 -1960 219 0
-2954 1701 0
-2954 1101 -3173 0
-2954 -1101 3173 0
-2954 1745 -3174 0
-2954 -1745 3174 0
-2954 741 -76 0
-2954 -741 76 0
-2954 3128 -1960 0
-2954 -3128 1960 0
2954 -1765 -1070 0
2954 -1765 -1547 0
2954 -1765 1305 0
2954 -1765 241 0
2954 -1765 896 -1547 0
2954 -1765 -896 1547 0
2954 -1765 263 -241 0
2954 -1765 -263 241 0
2954 -1765 27 -1070 0
2954 -1765 -27 1070 0
2954 -1765 21 -1305 0
2954 -1765 -21 1305 0
2954 1765 2714 0
2954 1765 794 0
2954 1765 -2298 0
2954 1765 -2192 0
2954 1765 896 -794 0
2954 1765 -896 794 0
2954 1765 263 -2192 0
2954 1765 -263 2192 0
2954 1765 27 -2714 0
2954 1765 -27 2714 0
2954 1765 21 -2298 0
2954 1765 -21 2298 0
2954 2585 0
2954 1101 -896 0
2954 -1101 896 0
2954 1745 -263 0
2954 -1745 263 0
2954 741 -27 0
2954 -741 27 0
2954 3128 -21 0
2954 -3128 21 0
-2041 -887 -1231 0
-2041 -887 -529 0
-2041 -887 -1761 0
-2041 -887 -1112 0
-2041 -887 350 -529 0
-2041 -887 -350 529 0
-2041 -887 2047 -1112 0
-2041 -887 -2047 1112 0
-2041 -887 1164 -1231 0
-2041 -887 -1164 1231 0
-2041 -887 3055 -1761 0
-2041 -887 -3055 1761 0
-2041 887 2113 0
-2041 887 2557 0
-2041 887 2130 0
-2041 887 1810 0
-2041 887 350 -2557 0
-2041 887 -350 2557 0
-2041 887 2047 -1810 0
-2041 887 -2047 1810 0
-2041 887 1164 -2113 0
-2041 887 -1164 2113 0
-2041 887 3055 -2130 0
-2041 887 -3055 2130 0
-2041 199 0
-2041 3115 -350 0
-2041 -3115 350 0
-2041 1845 -2047 0
-2041 -1845 2047 0
-2041 1101 -1164 0
-2041 -1101 1164 0
-2041 3139 -3055 0
-2041 -3139 3055 0
2041 -19 -838 0
2041 -19 -1948 0
2041 -19 2919 0
2041 -19 1776 0
2041 -19 1870 -1948 0
2041 -19 -1870 1948 0
2041 -19 1412 -1776 0
2041 -19 -1412 1776 0
2041 -19 207 -838 0
2041 -19 -207 838 0
2041 -19 3089 -2919 0
2041 -19 -3089 2919 0
2041 19 2943 0
2041 19 2512 0
2041 19 -2870 0
2041 19 -2757 0
2041 19 1870 -2512 0
2041 19 -1870 2512 0
2041 19 1412 -2757 0
2041 19 -1412 2757 0
2041 19 207 -2943 0
2041 19 -207 2943 0
2041 19 3089 -2870 0
2041 19 -3089 2870 0
2041 1525 0
2041 3115 -1870 0
2041 -3115 1870 0
2041 1845 -1412 0
2041 -1845 1412 0
2041 1101 -207 0
2041 -1101 207 0
2041 3139 -3089 0
2041 -3139 3089 0
-2175 -1405 -2205 0
-2175 -1405 -812 0
-2175 -1405 -231 0
-2175 -1405 -205 0
-2175 -1405 1868 -812 0
-2175 -1405 -1868 812 0
-2175 -1405 2405 -205 0
-2175 -1405 -2405 205 0
-2175 -1405 2944 -2205 0
-2175 -1405 -2944 2205 0
-2175 -1405 2129 -231 0
-2175 -1405 -2129 231 0
-2175 1405 52 0
-2175 1405 935 0
-2175 1405 1557 0
-2175 1405 1389 0
-2175 1405 1868 -935 0
-2175 1405 -1868 935 0
-2175 1405 2405 -1389 0
-2175 1405 -2405 1389 0
-2175 1405 2944 -52 0
-2175 1405 -2944 52 0
-2175 1405 2129 -1557 0
-2175 1405 -2129 1557 0
-2175 167 0
-2175 228 -1868 0
-2175 -228 1868 0
-2175 883 -2405 0
-2175 -883 2405 0
-2175 3115 -2944 0
-2175 -3115 2944 0
-2175 440 -2129 0
-2175 -440 2129 0
2175 -1356 -772 0
2175 -1356 -2382 0
2175 -1356 119 0
2175 -1356 3100 0
2175 -1356 43 -2382 0
2175 -1356 -43 2382 0
2175 -1356 2887 -3100 0
2175 -1356 -2887 3100 0
2175 -1356 1799 -772 0
2175 -1356 -1799 772 0
2175 -1356 3104 -119 0
2175 -1356 -3104 119 0
2175 1356 2395 0
2175 1356 2863 0
2175 1356 -3092 0
2175 1356 -963 0
2175 1356 43 -2863 0
2175 1356 -43 2863 0
2175 1356 2887 -963 0
2175 1356 -2887 963 0
2175 1356 1799 -2395 0
2175 1356 -1799 2395 0
2175 1356 3104 -3092 0
2175 1356 -3104 3092 0
2175 1950 0
2175 228 -43 0
2175 -228 43 0
2175 883 -2887 0
2175 -883 2887 0
2175 3115 -1799 0
2175 -3115 1799 0
2175 440 -3104 0
2175 -440 3104 0
-1188 -2874 -3044 0
-1188 -2874 -2087 0
-1188 -2874 -539 0
-1188 -2874 -1215 0
-1188 -2874 1917 -2087 0
-1188 -2874 -1917 2087 0
-1188 -2874 1052 -1215 0
-1188 -2874 -1052 1215 0
-1188 -2874 257 -3044 0
-1188 -2874 -257 3044 0
-1188 -2874 2333 -539 0
-1188 -2874 -2333 539 0
-1188 2874 1269 0
-1188 2874 304 0
-1188 2874 2621 0
-1188 2874 2502 0
-1188 2874 1917 -304 0
-1188 2874 -1917 304 0
-1188 2874 1052 -2502 0
-1188 2874 -1052 2502 0
-1188 2874 257 -1269 0
-1188 2874 -257 1269 0
-1188 2874 2333 -2621 0
-1188 2874 -2333 2621 0
-1188 2741 0
-1188 1360 -1917 0
-1188 -1360 1917 0
-1188 3107 -1052 0
-1188 -3107 1052 0
-1188 228 -257 0
-1188 -228 257 0
-1188 1623 -2333 0
-1188 -1623 2333 0
1188 -2835 -1731 0
1188 -2835 -8 0
1188 -2835 486 0
1188 -2835 518 0
1188 -2835 2035 -8 0
1188 -2835 -2035 8 0
1188 -2835 2040 -518 0
1188 -2835 -2040 518 0
1188 -2835 1012 -1731 0
1188 -2835 -1012 1731 0
1188 -2835 2066 -486 0
1188 -2835 -2066 486 0
1188 2835 1275 0
1188 2835 721 0
1188 2835 -621 0
1188 2835 -1903 0
1188 2835 2035 -721 0
1188 2835 -2035 721 0
1188 2835 2040 -1903 0
1188 2835 -2040 1903 0
1188 2835 1012 -1275 0
1188 2835 -1012 1275 0
1188 2835 2066 -621 0
1188 2835 -2066 621 0
1188 1711 0
1188 1360 -2035 0
1188 -1360 2035 0
1188 3107 -2040 0
1188 -3107 2040 0
1188 228 -1012 0
1188 -228 1012 0
1188 1623 -2066 0
1188 -1623 2066 0
-594 -2833 -2615 0
-594 -2833 -63 0
-594 -2833 -461 0
-594 -2833 -1407 0
-594 -2833 1270 -63 0
-594 -2833 -1270 63 0
-594 -2833 2620 -1407 0
-594 -2833 -2620 1407 0
-594 -2833 1452 -2615 0
-594 -2833 -1452 2615 0
-594 -2833 1750 -461 0
-594 -2833 -1750 461 0
-594 2833 2746 0
-594 2833 1039 0
-594 2833 2589 0
-594 2833 2283 0
-594 2833 1270 -1039 0
-594 2833 -1270 1039 0
-594 2833 2620 -2283 0
-594 2833 -2620 2283 0
-594 2833 1452 -2746 0
-594 2833 -1452 2746 0
-594 2833 1750 -2589 0
-594 2833 -1750 2589 0
-594 1798 0
-594 2975 -1270 0
-594 -2975 1270 0
-594 1424 -2620 0
-594 -1424 2620 0
-594 2401 -1452 0
-594 -2401 1452 0
-594 290 -1750 0
-594 -290 1750 0
594 -968 -2667 0
594 -968 -3051 0
594 -968 452 0
594 -968 825 0
594 -968 3041 -3051 0
594 -968 -3041 3051 0
594 -968 603 -825 0
594 -968 -603 825 0
594 -968 1649 -2667 0
594 -968 -1649 2667 0
594 -968 834 -452 0
594 -968 -834 452 0
594 968 3058 0
594 968 673 0
594 968 -2703 0
594 968 -2473 0
594 968 3041 -673 0
594 968 -3041 673 0
594 968 603 -2473 0
594 968 -603 2473 0
594 968 1649 -3058 0
594 968 -1649 3058 0
594 968 834 -2703 0
594 968 -834 2703 0
594 858 0
594 2975 -3041 0
594 -2975 3041 0
594 1424 -603 0
594 -1424 603 0
594 2401 -1649 0
594 -2401 1649 0
594 290 -834 0
594 -290 834 0
-1512 -2905 -117 0
-1512 -2905 -2957 0
-1512 -2905 -1456 0
-1512 -2905 -2153 0
-1512 -2905 295 -2957 0
-1512 -2905 -295 2957 0
-1512 -2905 2538 -2153 0
-1512 -2905 -2538 2153 0
-1512 -2905 134 -117 0
-1512 -2905 -134 117 0
-1512 -2905 510 -1456 0
-1512 -2905 -510 1456 0
-1512 2905 2964 0
-1512 2905 1430 0
-1512 2905 1785 0
-1512 2905 1867 0
-1512 2905 295 -1430 0
-1512 2905 -295 1430 0
-1512 2905 2538 -1867 0
-1512 2905 -2538 1867 0
-1512 2905 134 -2964 0
-1512 2905 -134 2964 0
-1512 2905 510 -1785 0
-1512 2905 -510 1785 0
-1512 2402 0
-1512 755 -295 0
-1512 -755 295 0
-1512 2213 -2538 0
-1512 -2213 2538 0
-1512 2975 -134 0
-1512 -2975 134 0
-1512 835 -510 0
-1512 -835 510 0
1512 -1814 -1978 0
1512 -1814 -1161 0
1512 -1814 1774 0
1512 -1814 1284 0
1512 -1814 1790 -1161 0
1512 -1814 -1790 1161 0
1512 -1814 2633 -1284 0
1512 -1814 -2633 1284 0
1512 -1814 1686 -1978 0
1512 -1814 -1686 1978 0
1512 -1814 3166 -1774 0
1512 -1814 -3166 1774 0
1512 1814 3012 0
1512 1814 3082 0
1512 1814 -902 0
1512 1814 -2991 0
1512 1814 1790 -3082 0
1512 1814 -1790 3082 0
1512 1814 2633 -2991 0
1512 1814 -2633 2991 0
1512 1814 1686 -3012 0
1512 1814 -1686 3012 0
1512 1814 3166 -902 0
1512 1814 -3166 902 0
1512 158 0
1512 755 -1790 0
1512 -755 1790 0
1512 2213 -2633 0
1512 -2213 2633 0
1512 2975 -1686 0
1512 -2975 1686 0
1512 835 -3166 0
1512 -835 3166 0
-641 -82 -426 0
-641 -82 -1697 0
-641 -82 -1777 0
-641 -82 -2952 0
-641 -82 153 -1697 0
-641 -82 -153 1697 0
-641 -82 1575 -2952 0
-641 -82 -1575 2952 0
-641 -82 2784 -426 0
-641 -82 -2784 426 0
-641 -82 540 -1777 0
-641 -82 -540 1777 0
-641 82 1847 0
-641 82 1282 0
-641 82 2498 0
-641 82 822 0
-641 82 153 -1282 0
-641 82 -153 1282 0
-641 82 1575 -822 0
-641 82 -1575 822 0
-641 82 2784 -1847 0
-641 82 -2784 1847 0
-641 82 540 -2498 0
-641 82 -540 2498 0
-641 200 0
-641 2948 -153 0
-641 -2948 153 0
-641 3093 -1575 0
-641 -3093 1575 0
-641 925 -2784 0
-641 -925 2784 0
-641 2811 -540 0
-641 -2811 540 0
641 -1096 -410 0
641 -1096 -287 0
641 -1096 920 0
641 -1096 177 0
641 -1096 1816 -287 0
641 -1096 -1816 287 0
641 -1096 261 -177 0
641 -1096 -261 177 0
641 -1096 593 -410 0
641 -1096 -593 410 0
641 -1096 75 -920 0
641 -1096 -75 920 0
641 1096 826 0
641 1096 1173 0
641 1096 -457 0
641 1096 -3153 0
641 1096 1816 -1173 0
641 1096 -1816 1173 0
641 1096 261 -3153 0
641 1096 -261 3153 0
641 1096 593 -826 0
641 1096 -593 826 0
641 1096 75 -457 0
641 1096 -75 457 0
641 2720 0
641 2948 -1816 0
641 -2948 1816 0
641 3093 -261 0
641 -3093 261 0
641 925 -593 0
641 -925 593 0
641 2811 -75 0
641 -2811 75 0
-2630 -2698 -1914 0
-2630 -2698 -757 0
-2630 -2698 -2016 0
-2630 -2698 -1368 0
-2630 -2698 1176 -757 0
-2630 -2698 -1176 757 0
-2630 -2698 1732 -1368 0
-2630 -2698 -1732 1368 0
-2630 -2698 2799 -1914 0
-2630 -2698 -2799 1914 0
-2630 -2698 1395 -2016 0
-2630 -2698 -1395 2016 0
-2630 2698 434 0
-2630 2698 3076 0
-2630 2698 523 0
-2630 2698 2322 0
-2630 2698 1176 -3076 0
-2630 2698 -1176 3076 0
-2630 2698 1732 -2322 0
-2630 2698 -1732 2322 0
-2630 2698 2799 -434 0
-2630 2698 -2799 434 0
-2630 2698 1395 -523 0
-2630 2698 -1395 523 0
-2630 2574 0
-2630 636 -1176 0
-2630 -636 1176 0
-2630 260 -1732 0
-2630 -260 1732 0
-2630 528 -2799 0
-2630 -528 2799 0
-2630 1424 -1395 0
-2630 -1424 1395 0
2630 -2778 -1943 0
2630 -2778 -1103 0
2630 -2778 374 0
2630 -2778 732 0
2630 -2778 1589 -1103 0
2630 -2778 -1589 1103 0
2630 -2778 2516 -732 0
2630 -2778 -2516 732 0
2630 -2778 698 -1943 0
2630 -2778 -698 1943 0
2630 -2778 1109 -374 0
2630 -2778 -1109 374 0
2630 2778 521 0
2630 2778 2248 0
2630 2778 -2766 0
2630 2778 -1874 0
2630 2778 1589 -2248 0
2630 2778 -1589 2248 0
2630 2778 2516 -1874 0
2630 2778 -2516 1874 0
2630 2778 698 -521 0
2630 2778 -698 521 0
2630 2778 1109 -2766 0
2630 2778 -1109 2766 0
2630 903 0
2630 636 -1589 0
2630 -636 1589 0
2630 260 -2516 0
2630 -260 2516 0
2630 528 -698 0
2630 -528 698 0
2630 1424 -1109 0
2630 -1424 1109 0
-2670 -2649 -1367 0
-2670 -2649 -1541 0
-2670 -2649 -1626 0
-2670 -2649 -106 0
-2670 -2649 2299 -1541 0
-2670 -2649 -2299 1541 0
-2670 -2649 2429 -106 0
-2670 -2649 -2429 106 0
-2670 -2649 2830 -1367 0
-2670 -2649 -2830 1367 0
-2670 -2649 2310 -1626 0
-2670 -2649 -2310 1626 0
-2670 2649 2861 0
-2670 2649 889 0
-2670 2649 817 0
-2670 2649 2400 0
-2670 2649 2299 -889 0
-2670 2649 -2299 889 0
-2670 2649 2429 -2400 0
-2670 2649 -2429 2400 0
-2670 2649 2830 -2861 0
-2670 2649 -2830 2861 0
-2670 2649 2310 -817 0
-2670 2649 -2310 817 0
-2670 2056 0
-2670 449 -2299 0
-2670 -449 2299 0
-2670 2451 -2429 0
-2670 -2451 2429 0
-2670 636 -2830 0
-2670 -636 2830 0
-2670 1340 -2310 0
-2670 -1340 2310 0
2670 -2889 -221 0
2670 -2889 -239 0
2670 -2889 178 0
2670 -2889 1934 0
2670 -2889 1312 -239 0
2670 -2889 -1312 239 0
2670 -2889 801 -1934 0
2670 -2889 -801 1934 0
2670 -2889 2444 -221 0
2670 -2889 -2444 221 0
2670 -2889 517 -178 0
2670 -2889 -517 178 0
2670 2889 1664 0
2670 2889 2700 0
2670 2889 -264 0
2670 2889 -311 0
2670 2889 1312 -2700 0
2670 2889 -1312 2700 0
2670 2889 801 -311 0
2670 2889 -801 311 0
2670 2889 2444 -1664 0
2670 2889 -2444 1664 0
2670 2889 517 -264 0
2670 2889 -517 264 0
2670 2181 0
2670 449 -1312 0
2670 -449 1312 0
2670 2451 -801 0
2670 -2451 801 0
2670 636 -2444 0
2670 -636 2444 0
2670 1340 -517 0
2670 -1340 517 0
-943 -2331 -886 0
-943 -2331 -1322 0
-943 -2331 -339 0
-943 -2331 -2500 0
-943 -2331 1342 -1322 0
-943 -2331 -1342 1322 0
-943 -2331 2519 -2500 0
-943 -2331 -2519 2500 0
-943 -2331 2218 -886 0
-943 -2331 -2218 886 0
-943 -2331 1692 -339 0
-943 -2331 -1692 339 0
-943 2331 1563 0
-943 2331 2063 0
-943 2331 552 0
-943 2331 1916 0
-943 2331 1342 -2063 0
-943 2331 -1342 2063 0
-943 2331 2519 -1916 0
-943 2331 -2519 1916 0
-943 2331 2218 -1563 0
-943 2331 -2218 1563 0
-943 2331 1692 -552 0
-943 2331 -1692 552 0
-943 1075 0
-943 749 -1342 0
-943 -749 1342 0
-943 2950 -2519 0
-943 -2950 2519 0
-943 512 -2218 0
-943 -512 2218 0
-943 2886 -1692 0
-943 -2886 1692 0
943 -1967 -609 0
943 -1967 -1820 0
943 -1967 1550 0
943 -1967 1034 0
943 -1967 109 -1820 0
943 -1967 -109 1820 0
943 -1967 1739 -1034 0
943 -1967 -1739 1034 0
943 -1967 2088 -609 0
943 -1967 -2088 609 0
943 -1967 2712 -1550 0
943 -1967 -2712 1550 0
943 1967 3147 0
943 1967 2653 0
943 1967 -1678 0
943 1967 -2906 0
943 1967 109 -2653 0
943 1967 -109 2653 0
943 1967 1739 -2906 0
943 1967 -1739 2906 0
943 1967 2088 -3147 0
943 1967 -2088 3147 0
943 1967 2712 -1678 0
943 1967 -2712 1678 0
943 1363 0
943 749 -109 0
943 -749 109 0
943 2950 -1739 0
943 -2950 1739 0
943 512 -2088 0
943 -512 2088 0
943 2886 -2712 0
943 -2886 2712 0
-1190 -1475 -715 0
-1190 -1475 -1909 0
-1190 -1475 -162 0
-1190 -1475 -612 0
-1190 -1475 2807 -1909 0
-1190 -1475 -2807 1909 0
-1190 -1475 708 -612 0
-1190 -1475 -708 612 0
-1190 -1475 1086 -715 0
-1190 -1475 -1086 715 0
-1190 -1475 1910 -162 0
-1190 -1475 -1910 162 0
-1190 1475 1197 0
-1190 1475 3037 0
-1190 1475 947 0
-1190 1475 1520 0
-1190 1475 2807 -3037 0
-1190 1475 -2807 3037 0
-1190 1475 708 -1520 0
-1190 1475 -708 1520 0
-1190 1475 1086 -1197 0
-1190 1475 -1086 1197 0
-1190 1475 1910 -947 0
-1190 1475 -1910 947 0
-1190 2404 0
-1190 262 -2807 0
-1190 -262 2807 0
-1190 2433 -708 0
-1190 -2433 708 0
-1190 749 -1086 0
-1190 -749 1086 0
-1190 2570 -1910 0
-1190 -2570 1910 0
1190 -1083 -700 0
1190 -1083 -1839 0
1190 -1083 2894 0
1190 -1083 553 0
1190 -1083 1627 -1839 0
1190 -1083 -1627 1839 0
1190 -1083 1256 -553 0
1190 -1083 -1256 553 0
1190 -1083 3149 -700 0
1190 -1083 -3149 700 0
1190 -1083 2852 -2894 0
1190 -1083 -2852 2894 0
1190 1083 1896 0
1190 1083 1057 0
1190 1083 -1254 0
1190 1083 -16 0
1190 1083 1627 -1057 0
1190 1083 -1627 1057 0
1190 1083 1256 -16 0
1190 1083 -1256 16 0
1190 1083 3149 -1896 0
1190 1083 -3149 1896 0
1190 1083 2852 -1254 0
1190 1083 -2852 1254 0
1190 224 0
1190 262 -1627 0
1190 -262 1627 0
1190 2433 -1256 0
1190 -2433 1256 0
1190 749 -3149 0
1190 -749 3149 0
1190 2570 -2852 0
1190 -2570 2852 0
-1536 -1397 -1558 0
-1536 -1397 -796 0
-1536 -1397 -174 0
-1536 -1397 -2225 0
-1536 -1397 3025 -796 0
-1536 -1397 -3025 796 0
-1536 -1397 2224 -2225 0
-1536 -1397 -2224 2225 0
-1536 -1397 657 -1558 0
-1536 -1397 -657 1558 0
-1536 -1397 478 -174 0
-1536 -1397 -478 174 0
-1536 1397 385 0
-1536 1397 2660 0
-1536 1397 3030 0
-1536 1397 710 0
-1536 1397 3025 -2660 0
-1536 1397 -3025 2660 0
-1536 1397 2224 -710 0
-1536 1397 -2224 710 0
-1536 1397 657 -385 0
-1536 1397 -657 385 0
-1536 1397 478 -3030 0
-1536 1397 -478 3030 0
-1536 3032 0
-1536 105 -3025 0
-1536 -105 3025 0
-1536 401 -2224 0
-1536 -401 2224 0
-1536 262 -657 0
-1536 -262 657 0
-1536 2451 -478 0
-1536 -2451 478 0
1536 -2064 -445 0
1536 -2064 -950 0
1536 -2064 2201 0
1536 -2064 601 0
1536 -2064 64 -950 0
1536 -2064 -64 950 0
1536 -2064 1089 -601 0
1536 -2064 -1089 601 0
1536 -2064 2742 -445 0
1536 -2064 -2742 445 0
1536 -2064 137 -2201 0
1536 -2064 -137 2201 0
1536 2064 60 0
1536 2064 2183 0
1536 2064 -3008 0
1536 2064 -1426 0
1536 2064 64 -2183 0
1536 2064 -64 2183 0
1536 2064 1089 -1426 0
1536 2064 -1089 1426 0
1536 2064 2742 -60 0
1536 2064 -2742 60 0
1536 2064 137 -3008 0
1536 2064 -137 3008 0
1536 2188 0
1536 105 -64 0
1536 -105 64 0
1536 401 -1089 0
1536 -401 1089 0
1536 262 -2742 0
1536 -262 2742 0
1536 2451 -137 0
1536 -2451 137 0
-2678 -602 -1873 0
-2678 -602 -358 0
-2678 -602 -3132 0
-2678 -602 -367 0
-2678 -602 1420 -358 0
-2678 -602 -1420 358 0
-2678 -602 2054 -367 0
-2678 -602 -2054 367 0
-2678 -602 1187 -1873 0
-2678 -602 -1187 1873 0
-2678 -602 2612 -3132 0
-2678 -602 -2612 3132 0
-2678 602 2654 0
-2678 602 2290 0
-2678 602 1521 0
-2678 602 861 0
-2678 602 1420 -2290 0
-2678 602 -1420 2290 0
-2678 602 2054 -861 0
-2678 602 -2054 861 0
-2678 602 1187 -2654 0
-2678 602 -1187 2654 0
-2678 602 2612 -1521 0
-2678 602 -2612 1521 0
-2678 2272 0
-2678 456 -1420 0
-2678 -456 1420 0
-2678 1044 -2054 0
-2678 -1044 2054 0
-2678 3093 -1187 0
-2678 -3093 1187 0
-2678 2767 -2612 0
-2678 -2767 2612 0
2678 -1676 -2376 0
2678 -1676 -1465 0
2678 -1676 197 0
2678 -1676 844 0
2678 -1676 3083 -1465 0
2678 -1676 -3083 1465 0
2678 -1676 148 -844 0
2678 -1676 -148 844 0
2678 -1676 2254 -2376 0
2678 -1676 -2254 2376 0
2678 -1676 2418 -197 0
2678 -1676 -2418 197 0
2678 1676 244 0
2678 1676 118 0
2678 1676 -2142 0
2678 1676 -723 0
2678 1676 3083 -118 0
2678 1676 -3083 118 0
2678 1676 148 -723 0
2678 1676 -148 723 0
2678 1676 2254 -244 0
2678 1676 -2254 244 0
2678 1676 2418 -2142 0
2678 1676 -2418 2142 0
2678 1659 0
2678 456 -3083 0
2678 -456 3083 0
2678 1044 -148 0
2678 -1044 148 0
2678 3093 -2254 0
2678 -3093 2254 0
2678 2767 -2418 0
2678 -2767 2418 0
-3035 -2039 -640 0
-3035 -2039 -1862 0
-3035 -2039 -1099 0
-3035 -2039 -2645 0
-3035 -2039 218 -1862 0
-3035 -2039 -218 1862 0
-3035 -2039 1434 -2645 0
-3035 -2039 -1434 2645 0
-3035 -2039 70 -640 0
-3035 -2039 -70 640 0
-3035 -2039 2695 -1099 0
-3035 -2039 -2695 1099 0
-3035 2039 1330 0
-3035 2039 2718 0
-3035 2039 1230 0
-3035 2039 964 0
-3035 2039 218 -2718 0
-3035 2039 -218 2718 0
-3035 2039 1434 -964 0
-3035 2039 -1434 964 0
-3035 2039 70 -1330 0
-3035 2039 -70 1330 0
-3035 2039 2695 -1230 0
-3035 2039 -2695 1230 0
-3035 575 0
-3035 3170 -218 0
-3035 -3170 218 0
-3035 585 -1434 0
-3035 -585 1434 0
-3035 735 -70 0
-3035 -735 70 0
-3035 688 -2695 0
-3035 -688 2695 0
3035 -2901 -496 0
3035 -2901 -34 0
3035 -2901 2761 0
3035 -2901 1152 0
3035 -2901 444 -34 0
3035 -2901 -444 34 0
3035 -2901 3075 -1152 0
3035 -2901 -3075 1152 0
3035 -2901 1162 -496 0
3035 -2901 -1162 496 0
3035 -2901 2219 -2761 0
3035 -2901 -2219 2761 0
3035 2901 359 0
3035 2901 1775 0
3035 2901 -2015 0
3035 2901 -2071 0
3035 2901 444 -1775 0
3035 2901 -444 1775 0
3035 2901 3075 -2071 0
3035 2901 -3075 2071 0
3035 2901 1162 -359 0
3035 2901 -1162 359 0
3035 2901 2219 -2015 0
3035 2901 -2219 2015 0
3035 3165 0
3035 3170 -444 0
3035 -3170 444 0
3035 585 -3075 0
3035 -585 3075 0
3035 735 -1162 0
3035 -735 1162 0
3035 688 -2219 0
3035 -688 2219 0
-2876 -253 -2881 0
-2876 -253 -2710 0
-2876 -253 -3077 0
-2876 -253 -2877 0
-2876 -253 2959 -2710 0
-2876 -253 -2959 2710 0
-2876 -253 412 -2877 0
-2876 -253 -412 2877 0
-2876 -253 2174 -2881 0
-2876 -253 -2174 2881 0
-2876 -253 1396 -3077 0
-2876 -253 -1396 3077 0
-2876 253 1033 0
-2876 253 1857 0
-2876 253 2216 0
-2876 253 2668 0
-2876 253 2959 -1857 0
-2876 253 -2959 1857 0
-2876 253 412 -2668 0
-2876 253 -412 2668 0
-2876 253 2174 -1033 0
-2876 253 -2174 1033 0
-2876 253 1396 -2216 0
-2876 253 -1396 2216 0
-2876 1216 0
-2876 1448 -2959 0
-2876 -1448 2959 0
-2876 1971 -412 0
-2876 -1971 412 0
-2876 2613 -2174 0
-2876 -2613 2174 0
-2876 2739 -1396 0
-2876 -2739 1396 0
2876 -198 -2885 0
2876 -198 -1551 0
2876 -198 2198 0
2876 -198 959 0
2876 -198 1931 -1551 0
2876 -198 -1931 1551 0
2876 -198 3158 -959 0
2876 -198 -3158 959 0
2876 -198 195 -2885 0
2876 -198 -195 2885 0
2876 -198 2428 -2198 0
2876 -198 -2428 2198 0
2876 198 2439 0
2876 198 1538 0
2876 198 -1999 0
2876 198 -2438 0
2876 198 1931 -1538 0
2876 198 -1931 1538 0
2876 198 3158 -2438 0
2876 198 -3158 2438 0
2876 198 195 -2439 0
2876 198 -195 2439 0
2876 198 2428 -1999 0
2876 198 -2428 1999 0
2876 2176 0
2876 1448 -1931 0
2876 -1448 1931 0
2876 1971 -3158 0
2876 -1971 3158 0
2876 2613 -195 0
2876 -2613 195 0
2876 2739 -2428 0
2876 -2739 2428 0
-3179 -1335 -1221 0
-3179 -1335 -940 0
-3179 -1335 -2571 0
-3179 -1335 -56 0
-3179 -1335 3040 -940 0
-3179 -1335 -3040 940 0
-3179 -1335 2059 -56 0
-3179 -1335 -2059 56 0
-3179 -1335 1350 -1221 0
-3179 -1335 -1350 1221 0
-3179 -1335 1617 -2571 0
-3179 -1335 -1617 2571 0
-3179 1335 2305 0
-3179 1335 3175 0
-3179 1335 1479 0
-3179 1335 2228 0
-3179 1335 3040 -3175 0
-3179 1335 -3040 3175 0
-3179 1335 2059 -2228 0
-3179 1335 -2059 2228 0
-3179 1335 1350 -2305 0
-3179 1335 -1350 2305 0
-3179 1335 1617 -1479 0
-3179 1335 -1617 1479 0
-3179 1155 0
-3179 2597 -3040 0
-3179 -2597 3040 0
-3179 1126 -2059 0
-3179 -1126 2059 0
-3179 2147 -1350 0
-3179 -2147 1350 0
-3179 340 -1617 0
-3179 -340 1617 0
3179 -2699 -1470 0
3179 -2699 -388 0
3179 -2699 1552 0
3179 -2699 2207 0
3179 -2699 2281 -388 0
3179 -2699 -2281 388 0
3179 -2699 2839 -2207 0
3179 -2699 -2839 2207 0
3179 -2699 130 -1470 0
3179 -2699 -130 1470 0
3179 -2699 2341 -1552 0
3179 -2699 -2341 1552 0
3179 2699 2470 0
3179 2699 1123 0
3179 2699 -1970 0
3179 2699 -829 0
3179 2699 2281 -1123 0
3179 2699 -2281 1123 0
3179 2699 2839 -829 0
3179 2699 -2839 829 0
3179 2699 130 -2470 0
3179 2699 -130 2470 0
3179 2699 2341 -1970 0
3179 2699 -2341 1970 0
3179 468 0
3179 2597 -2281 0
3179 -2597 2281 0
3179 1126 -2839 0
3179 -1126 2839 0
3179 2147 -130 0
3179 -2147 130 0
3179 340 -2341 0
3179 -340 2341 0
-2704 -740 -1913 0
-2704 -740 -362 0
-2704 -740 -2204 0
-2704 -740 -2462 0
-2704 -740 1583 -362 0
-2704 -740 -1583 362 0
-2704 -740 1288 -2462 0
-2704 -740 -1288 2462 0
-2704 -740 280 -1913 0
-2704 -740 -280 1913 0
-2704 -740 1323 -2204 0
-2704 -740 -1323 2204 0
-2704 740 1703 0
-2704 740 511 0
-2704 740 2816 0
-2704 740 2119 0
-2704 740 1583 -511 0
-2704 740 -1583 511 0
-2704 740 1288 -2119 0
-2704 740 -1288 2119 0
-2704 740 280 -1703 0
-2704 740 -280 1703 0
-2704 740 1323 -2816 0
-2704 740 -1323 2816 0
-2704 1466 0
-2704 1439 -1583 0
-2704 -1439 1583 0
-2704 201 -1288 0
-2704 -201 1288 0
-2704 2597 -280 0
-2704 -2597 280 0
-2704 1700 -1323 0
-2704 -1700 1323 0
2704 -793 -485 0
2704 -793 -1417 0
2704 -793 631 0
2704 -793 215 0
2704 -793 1940 -1417 0
2704 -793 -1940 1417 0
2704 -793 2936 -215 0
2704 -793 -2936 215 0
2704 -793 2484 -485 0
2704 -793 -2484 485 0
2704 -793 616 -631 0
2704 -793 -616 631 0
2704 793 1311 0
2704 793 3129 0
2704 793 -987 0
2704 793 -892 0
2704 793 1940 -3129 0
2704 793 -1940 3129 0
2704 793 2936 -892 0
2704 793 -2936 892 0
2704 793 2484 -1311 0
2704 793 -2484 1311 0
2704 793 616 -987 0
2704 793 -616 987 0
2704 1672 0
2704 1439 -1940 0
2704 -1439 1940 0
2704 201 -2936 0
2704 -201 2936 0
2704 2597 -2484 0
2704 -2597 2484 0
2704 1700 -616 0
2704 -1700 616 0
-970 -44 -956 0
-970 -44 -2684 0
-970 -44 -2370 0
-970 -44 -2907 0
-970 -44 1243 -2684 0
-970 -44 -1243 2684 0
-970 -44 2734 -2907 0
-970 -44 -2734 2907 0
-970 -44 1325 -956 0
-970 -44 -1325 956 0
-970 -44 2411 -2370 0
-970 -44 -2411 2370 0
-970 44 2708 0
-970 44 1404 0
-970 44 3024 0
-970 44 2844 0
-970 44 1243 -1404 0
-970 44 -1243 1404 0
-970 44 2734 -2844 0
-970 44 -2734 2844 0
-970 44 1325 -2708 0
-970 44 -1325 2708 0
-970 44 2411 -3024 0
-970 44 -2411 3024 0
-970 771 0
-970 2775 -1243 0
-970 -2775 1243 0
-970 1756 -2734 0
-970 -1756 2734 0
-970 1439 -1325 0
-970 -1439 1325 0
-970 1992 -2411 0
-970 -1992 2411 0
970 -568 -1885 0
970 -568 -229 0
970 -568 644 0
970 -568 1118 0
970 -568 2554 -229 0
970 -568 -2554 229 0
970 -568 1131 -1118 0
970 -568 -1131 1118 0
970 -568 1699 -1885 0
970 -568 -1699 1885 0
970 -568 182 -644 0
970 -568 -182 644 0
970 568 1202 0
970 568 470 0
970 568 -2284 0
970 568 -1411 0
970 568 2554 -470 0
970 568 -2554 470 0
970 568 1131 -1411 0
970 568 -1131 1411 0
970 568 1699 -1202 0
970 568 -1699 1202 0
970 568 182 -2284 0
970 568 -182 2284 0
970 972 0
970 2775 -2554 0
970 -2775 2554 0
970 1756 -1131 0
970 -1756 1131 0
970 1439 -1699 0
970 -1439 1699 0
970 1992 -182 0
970 -1992 182 0
-2244 -1897 -247 0
-2244 -1897 -227 0
-2244 -1897 -2156 0
-2244 -1897 -3088 0
-2244 -1897 2472 -227 0
-2244 -1897 -2472 227 0
-2244 -1897 534 -3088 0
-2244 -1897 -534 3088 0
-2244 -1897 3111 -247 0
-2244 -1897 -3111 247 0
-2244 -1897 1090 -2156 0
-2244 -1897 -1090 2156 0
-2244 1897 2323 0
-2244 1897 464 0
-2244 1897 172 0
-2244 1897 1022 0
-2244 1897 2472 -464 0
-2244 1897 -2472 464 0
-2244 1897 534 -1022 0
-2244 1897 -534 1022 0
-2244 1897 3111 -2323 0
-2244 1897 -3111 2323 0
-2244 1897 1090 -172 0
-2244 1897 -1090 172 0
-2244 990 0
-2244 2123 -2472 0
-2244 -2123 2472 0
-2244 1562 -534 0
-2244 -1562 534 0
-2244 1126 -3111 0
-2244 -1126 3111 0
-2244 2437 -1090 0
-2244 -2437 1090 0
2244 -662 -653 0
2244 -662 -937 0
2244 -662 870 0
2244 -662 2407 0
2244 -662 932 -937 0
2244 -662 -932 937 0
2244 -662 1444 -2407 0
2244 -662 -1444 2407 0
2244 -662 392 -653 0
2244 -662 -392 653 0
2244 -662 850 -870 0
2244 -662 -850 870 0
2244 662 2327 0
2244 662 344 0
2244 662 -1384 0
2244 662 -2108 0
2244 662 932 -344 0
2244 662 -932 344 0
2244 662 1444 -2108 0
2244 662 -1444 2108 0
2244 662 392 -2327 0
2244 662 -392 2327 0
2244 662 850 -1384 0
2244 662 -850 1384 0
2244 477 0
2244 2123 -932 0
2244 -2123 932 0
2244 1562 -1444 0
2244 -1562 1444 0
2244 1126 -392 0
2244 -1126 392 0
2244 2437 -850 0
2244 -2437 850 0
-2458 -1854 -1926 0
-2458 -1854 -147 0
-2458 -1854 -2361 0
-2458 -1854 -917 0
-2458 -1854 2567 -147 0
-2458 -1854 -2567 147 0
-2458 -1854 3074 -917 0
-2458 -1854 -3074 917 0
-2458 -1854 2413 -1926 0
-2458 -1854 -2413 1926 0
-2458 -1854 1107 -2361 0
-2458 -1854 -1107 2361 0
-2458 1854 1283 0
-2458 1854 3042 0
-2458 1854 3067 0
-2458 1854 777 0
-2458 1854 2567 -3042 0
-2458 1854 -2567 3042 0
-2458 1854 3074 -777 0
-2458 1854 -3074 777 0
-2458 1854 2413 -1283 0
-2458 1854 -2413 1283 0
-2458 1854 1107 -3067 0
-2458 1854 -1107 3067 0
-2458 2584 0
-2458 2051 -2567 0
-2458 -2051 2567 0
-2458 2114 -3074 0
-2458 -2114 3074 0
-2458 2123 -2413 0
-2458 -2123 2413 0
-2458 401 -1107 0
-2458 -401 1107 0
2458 -845 -2797 0
2458 -845 -1435 0
2458 -845 3181 0
2458 -845 53 0
2458 -845 1326 -1435 0
2458 -845 -1326 1435 0
2458 -845 3150 -53 0
2458 -845 -3150 53 0
2458 -845 1031 -2797 0
2458 -845 -1031 2797 0
2458 -845 2094 -3181 0
2458 -845 -2094 3181 0
2458 845 1421 0
2458 845 1685 0
2458 845 -71 0
2458 845 -1961 0
2458 845 1326 -1685 0
2458 845 -1326 1685 0
2458 845 3150 -1961 0
2458 845 -3150 1961 0
2458 845 1031 -1421 0
2458 845 -1031 1421 0
2458 845 2094 -71 0
2458 845 -2094 71 0
2458 3151 0
2458 2051 -1326 0
2458 -2051 1326 0
2458 2114 -3150 0
2458 -2114 3150 0
2458 2123 -1031 0
2458 -2123 1031 0
2458 401 -2094 0
2458 -401 2094 0
-1735 -1991 -2082 0
-1735 -1991 -1811 0
-1735 -1991 -2206 0
-1735 -1991 -2067 0
-1735 -1991 992 -1811 0
-1735 -1991 -992 1811 0
-1735 -1991 2511 -2067 0
-1735 -1991 -2511 2067 0
-1735 -1991 1861 -2082 0
-1735 -1991 -1861 2082 0
-1735 -1991 2208 -2206 0
-1735 -1991 -2208 2206 0
-1735 1991 2443 0
-1735 1991 149 0
-1735 1991 1182 0
-1735 1991 547 0
-1735 1991 992 -149 0
-1735 1991 -992 149 0
-1735 1991 2511 -547 0
-1735 1991 -2511 547 0
-1735 1991 1861 -2443 0
-1735 1991 -1861 2443 0
-1735 1991 2208 -1182 0
-1735 1991 -2208 1182 0
-1735 2045 0
-1735 2313 -992 0
-1735 -2313 992 0
-1735 1490 -2511 0
-1735 -1490 2511 0
-1735 2051 -1861 0
-1735 -2051 1861 0
-1735 1629 -2208 0
-1735 -1629 2208 0
1735 -2632 -3106 0
1735 -2632 -768 0
1735 -2632 1706 0
1735 -2632 954 0
1735 -2632 2573 -768 0
1735 -2632 -2573 768 0
1735 -2632 1468 -954 0
1735 -2632 -1468 954 0
1735 -2632 3056 -3106 0
1735 -2632 -3056 3106 0
1735 -2632 2509 -1706 0
1735 -2632 -2509 1706 0
1735 2632 1108 0
1735 2632 2164 0
1735 2632 -1349 0
1735 2632 -190 0
1735 2632 2573 -2164 0
1735 2632 -2573 2164 0
1735 2632 1468 -190 0
1735 2632 -1468 190 0
1735 2632 3056 -1108 0
1735 2632 -3056 1108 0
1735 2632 2509 -1349 0
1735 2632 -2509 1349 0
1735 2969 0
1735 2313 -2573 0
1735 -2313 2573 0
1735 1490 -1468 0
1735 -1490 1468 0
1735 2051 -3056 0
1735 -2051 3056 0
1735 1629 -2509 0
1735 -1629 2509 0
-3125 -649 -2706 0
-3125 -649 -1224 0
-3125 -649 -1964 0
-3125 -649 -2086 0
-3125 -649 2637 -1224 0
-3125 -649 -2637 1224 0
-3125 -649 2803 -2086 0
-3125 -649 -2803 2086 0
-3125 -649 2321 -2706 0
-3125 -649 -2321 2706 0
-3125 -649 2255 -1964 0
-3125 -649 -2255 1964 0
-3125 649 3023 0
-3125 649 1194 0
-3125 649 985 0
-3125 649 781 0
-3125 649 2637 -1194 0
-3125 649 -2637 1194 0
-3125 649 2803 -781 0
-3125 649 -2803 781 0
-3125 649 2321 -3023 0
-3125 649 -2321 3023 0
-3125 649 2255 -985 0
-3125 649 -2255 985 0
-3125 2419 0
-3125 998 -2637 0
-3125 -998 2637 0
-3125 1289 -2803 0
-3125 -1289 2803 0
-3125 322 -2321 0
-3125 -322 2321 0
-3125 532 -2255 0
-3125 -532 2255 0
3125 -108 -2507 0
3125 -108 -429 0
3125 -108 135 0
3125 -108 1484 0
3125 -108 1264 -429 0
3125 -108 -1264 429 0
3125 -108 2415 -1484 0
3125 -108 -2415 1484 0
3125 -108 2563 -2507 0
3125 -108 -2563 2507 0
3125 -108 2031 -135 0
3125 -108 -2031 135 0
3125 108 1422 0
3125 108 1274 0
3125 108 -882 0
3125 108 -562 0
3125 108 1264 -1274 0
3125 108 -1264 1274 0
3125 108 2415 -562 0
3125 108 -2415 562 0
3125 108 2563 -1422 0
3125 108 -2563 1422 0
3125 108 2031 -882 0
3125 108 -2031 882 0
3125 678 0
3125 998 -1264 0
3125 -998 1264 0
3125 1289 -2415 0
3125 -1289 2415 0
3125 322 -2563 0
3125 -322 2563 0
3125 532 -2031 0
3125 -532 2031 0
-2166 -788 -799 0
-2166 -788 -722 0
-2166 -788 -2425 0
-2166 -788 -1754 0
-2166 -788 907 -722 0
-2166 -788 -907 722 0
-2166 -788 581 -1754 0
-2166 -788 -581 1754 0
-2166 -788 2838 -799 0
-2166 -788 -2838 799 0
-2166 -788 1506 -2425 0
-2166 -788 -1506 2425 0
-2166 788 2155 0
-2166 788 1937 0
-2166 788 2892 0
-2166 788 770 0
-2166 788 907 -1937 0
-2166 788 -907 1937 0
-2166 788 581 -770 0
-2166 788 -581 770 0
-2166 788 2838 -2155 0
-2166 788 -2838 2155 0
-2166 788 1506 -2892 0
-2166 788 -1506 2892 0
-2166 503 0
-2166 904 -907 0
-2166 -904 907 0
-2166 1301 -581 0
-2166 -1301 581 0
-2166 998 -2838 0
-2166 -998 2838 0
-2166 476 -1506 0
-2166 -476 1506 0
2166 -2676 -248 0
2166 -2676 -2291 0
2166 -2676 2274 0
2166 -2676 3022 0
2166 -2676 2446 -2291 0
2166 -2676 -2446 2291 0
2166 -2676 492 -3022 0
2166 -2676 -492 3022 0
2166 -2676 1666 -248 0
2166 -2676 -1666 248 0
2166 -2676 40 -2274 0
2166 -2676 -40 2274 0
2166 2676 656 0
2166 2676 1906 0
2166 2676 -1450 0
2166 2676 -1114 0
2166 2676 2446 -1906 0
2166 2676 -2446 1906 0
2166 2676 492 -1114 0
2166 2676 -492 1114 0
2166 2676 1666 -656 0
2166 2676 -1666 656 0
2166 2676 40 -1450 0
2166 2676 -40 1450 0
2166 301 0
2166 904 -2446 0
2166 -904 2446 0
2166 1301 -492 0
2166 -1301 492 0
2166 998 -1666 0
2166 -998 1666 0
2166 476 -40 0
2166 -476 40 0
-1461 -2691 -1935 0
-1461 -2691 -7 0
-1461 -2691 -2774 0
-1461 -2691 -1976 0
-1461 -2691 2931 -7 0
-1461 -2691 -2931 7 0
-1461 -2691 2008 -1976 0
-1461 -2691 -2008 1976 0
-1461 -2691 1852 -1935 0
-1461 -2691 -1852 1935 0
-1461 -2691 3047 -2774 0
-1461 -2691 -3047 2774 0
-1461 2691 2266 0
-1461 2691 324 0
-1461 2691 1234 0
-1461 2691 1532 0
-1461 2691 2931 -324 0
-1461 2691 -2931 324 0
-1461 2691 2008 -1532 0
-1461 2691 -2008 1532 0
-1461 2691 1852 -2266 0
-1461 2691 -1852 2266 0
-1461 2691 3047 -1234 0
-1461 2691 -3047 1234 0
-1461 305 0
-1461 3096 -2931 0
-1461 -3096 2931 0
-1461 1534 -2008 0
-1461 -1534 2008 0
-1461 3136 -1852 0
-1461 -3136 1852 0
-1461 250 -3047 0
-1461 -250 3047 0
1461 -782 -2435 0
1461 -782 -3014 0
1461 -782 2731 0
1461 -782 275 0
1461 -782 1488 -3014 0
1461 -782 -1488 3014 0
1461 -782 2923 -275 0
1461 -782 -2923 275 0
1461 -782 3102 -2435 0
1461 -782 -3102 2435 0
1461 -782 3095 -2731 0
1461 -782 -3095 2731 0
1461 782 1398 0
1461 782 3148 0
1461 782 -1540 0
1461 782 -779 0
1461 782 1488 -3148 0
1461 782 -1488 3148 0
1461 782 2923 -779 0
1461 782 -2923 779 0
1461 782 3102 -1398 0
1461 782 -3102 1398 0
1461 782 3095 -1540 0
1461 782 -3095 1540 0
1461 2911 0
1461 3096 -1488 0
1461 -3096 1488 0
1461 1534 -2923 0
1461 -1534 2923 0
1461 3136 -3102 0
1461 -3136 3102 0
1461 250 -3095 0
1461 -250 3095 0
-188 -427 -531 0
-188 -427 -1698 0
-188 -427 -2135 0
-188 -427 -2576 0
-188 -427 2222 -1698 0
-188 -427 -2222 1698 0
-188 -427 1442 -2576 0
-188 -427 -1442 2576 0
-188 -427 1214 -531 0
-188 -427 -1214 531 0
-188 -427 1832 -2135 0
-188 -427 -1832 2135 0
-188 427 2693 0
-188 427 1239 0
-188 427 1603 0
-188 427 2232 0
-188 427 2222 -1239 0
-188 427 -2222 1239 0
-188 427 1442 -2232 0
-188 427 -1442 2232 0
-188 427 1214 -2693 0
-188 427 -1214 2693 0
-188 427 1832 -1603 0
-188 427 -1832 1603 0
-188 2655 0
-188 1998 -2222 0
-188 -1998 2222 0
-188 953 -1442 0
-188 -953 1442 0
-188 3096 -1214 0
-188 -3096 1214 0
-188 1612 -1832 0
-188 -1612 1832 0
188 -3028 -1165 0
188 -3028 -1433 0
188 -3028 3176 0
188 -3028 1640 0
188 -3028 2856 -1433 0
188 -3028 -2856 1433 0
188 -3028 1287 -1640 0
188 -3028 -1287 1640 0
188 -3028 49 -1165 0
188 -3028 -49 1165 0
188 -3028 1615 -3176 0
188 -3028 -1615 3176 0
188 3028 212 0
188 3028 720 0
188 3028 -1300 0
188 3028 -2131 0
188 3028 2856 -720 0
188 3028 -2856 720 0
188 3028 1287 -2131 0
188 3028 -1287 2131 0
188 3028 49 -212 0
188 3028 -49 212 0
188 3028 1615 -1300 0
188 3028 -1615 1300 0
188 2723 0
188 1998 -2856 0
188 -1998 2856 0
188 953 -1287 0
188 -953 1287 0
188 3096 -49 0
188 -3096 49 0
188 1612 -1615 0
188 -1612 1615 0
-2019 -1314 -2023 0
-2019 -1314 -2117 0
-2019 -1314 -1720 0
-2019 -1314 -33 0
-2019 -1314 2479 -2117 0
-2019 -1314 -2479 2117 0
-2019 -1314 3120 -33 0
-2019 -1314 -3120 33 0
-2019 -1314 2517 -2023 0
-2019 -1314 -2517 2023 0
-2019 -1314 1370 -1720 0
-2019 -1314 -1370 1720 0
-2019 1314 150 0
-2019 1314 2386 0
-2019 1314 1060 0
-2019 1314 22 0
-2019 1314 2479 -2386 0
-2019 1314 -2479 2386 0
-2019 1314 3120 -22 0
-2019 1314 -3120 22 0
-2019 1314 2517 -150 0
-2019 1314 -2517 150 0
-2019 1314 1370 -1060 0
-2019 1314 -1370 1060 0
-2019 1030 0
-2019 2960 -2479 0
-2019 -2960 2479 0
-2019 821 -3120 0
-2019 -821 3120 0
-2019 46 -2517 0
-2019 -46 2517 0
-2019 585 -1370 0
-2019 -585 1370 0
2019 -627 -1636 0
2019 -627 -1446 0
2019 -627 2568 0
2019 -627 242 0
2019 -627 544 -1446 0
2019 -627 -544 1446 0
2019 -627 1804 -242 0
2019 -627 -1804 242 0
2019 -627 1028 -1636 0
2019 -627 -1028 1636 0
2019 -627 1988 -2568 0
2019 -627 -1988 2568 0
2019 627 969 0
2019 627 2061 0
2019 627 -2674 0
2019 627 -1869 0
2019 627 544 -2061 0
2019 627 -544 2061 0
2019 627 1804 -1869 0
2019 627 -1804 1869 0
2019 627 1028 -969 0
2019 627 -1028 969 0
2019 627 1988 -2674 0
2019 627 -1988 2674 0
2019 3009 0
2019 2960 -544 0
2019 -2960 544 0
2019 821 -1804 0
2019 -821 1804 0
2019 46 -1028 0
2019 -46 1028 0
2019 585 -1988 0
2019 -585 1988 0
-140 -1138 -1294 0
-140 -1138 -1048 0
-140 -1138 -1146 0
-140 -1138 -2829 0
-140 -1138 1181 -1048 0
-140 -1138 -1181 1048 0
-140 -1138 802 -2829 0
-140 -1138 -802 2829 0
-140 -1138 827 -1294 0
-140 -1138 -827 1294 0
-140 -1138 3060 -1146 0
-140 -1138 -3060 1146 0
-140 1138 47 0
-140 1138 145 0
-140 1138 2241 0
-140 1138 2083 0
-140 1138 1181 -145 0
-140 1138 -1181 145 0
-140 1138 802 -2083 0
-140 1138 -802 2083 0
-140 1138 827 -47 0
-140 1138 -827 47 0
-140 1138 3060 -2241 0
-140 1138 -3060 2241 0
-140 1668 0
-140 926 -1181 0
-140 -926 1181 0
-140 1570 -802 0
-140 -1570 802 0
-140 2960 -827 0
-140 -2960 827 0
-140 2433 -3060 0
-140 -2433 3060 0
140 -599 -561 0
140 -599 -2296 0
140 -599 1496 0
140 -599 296 0
140 -599 333 -2296 0
140 -599 -333 2296 0
140 -599 2812 -296 0
140 -599 -2812 296 0
140 -599 2662 -561 0
140 -599 -2662 561 0
140 -599 1974 -1496 0
140 -599 -1974 1496 0
140 599 270 0
140 599 2705 0
140 599 -2853 0
140 599 -696 0
140 599 333 -2705 0
140 599 -333 2705 0
140 599 2812 -696 0
140 599 -2812 696 0
140 599 2662 -270 0
140 599 -2662 270 0
140 599 1974 -2853 0
140 599 -1974 2853 0
140 133 0
140 926 -333 0
140 -926 333 0
140 1570 -2812 0
140 -1570 2812 0
140 2960 -2662 0
140 -2960 2662 0
140 2433 -1974 0
140 -2433 1974 0
-1005 -124 -1201 0
-1005 -124 -2351 0
-1005 -124 -590 0
-1005 -124 -3043 0
-1005 -124 2295 -2351 0
-1005 -124 -2295 2351 0
-1005 -124 2196 -3043 0
-1005 -124 -2196 3043 0
-1005 -124 2781 -1201 0
-1005 -124 -2781 1201 0
-1005 -124 967 -590 0
-1005 -124 -967 590 0
-1005 124 111 0
-1005 124 1415 0
-1005 124 2544 0
-1005 124 2616 0
-1005 124 2295 -1415 0
-1005 124 -2295 1415 0
-1005 124 2196 -2616 0
-1005 124 -2196 2616 0
-1005 124 2781 -111 0
-1005 124 -2781 111 0
-1005 124 967 -2544 0
-1005 124 -967 2544 0
-1005 31 0
-1005 1641 -2295 0
-1005 -1641 2295 0
-1005 1102 -2196 0
-1005 -1102 2196 0
-1005 926 -2781 0
-1005 -926 2781 0
-1005 953 -967 0
-1005 -953 967 0
1005 -2316 -170 0
1005 -2316 -818 0
1005 -2316 924 0
1005 -2316 1887 0
1005 -2316 806 -818 0
1005 -2316 -806 818 0
1005 -2316 2721 -1887 0
1005 -2316 -2721 1887 0
1005 -2316 321 -170 0
1005 -2316 -321 170 0
1005 -2316 1220 -924 0
1005 -2316 -1220 924 0
1005 2316 389 0
1005 2316 1437 0
1005 2316 -2416 0
1005 2316 -1952 0
1005 2316 806 -1437 0
1005 2316 -806 1437 0
1005 2316 2721 -1952 0
1005 2316 -2721 1952 0
1005 2316 321 -389 0
1005 2316 -321 389 0
1005 2316 1220 -2416 0
1005 2316 -1220 2416 0
1005 77 0
1005 1641 -806 0
1005 -1641 806 0
1005 1102 -2721 0
1005 -1102 2721 0
1005 926 -321 0
1005 -926 321 0
1005 953 -1220 0
1005 -953 1220 0
-1758 -2163 -3112 0
-1758 -2163 -1670 0
-1758 -2163 -3119 0
-1758 -2163 -129 0
-1758 -2163 2368 -1670 0
-1758 -2163 -2368 1670 0
-1758 -2163 2442 -129 0
-1758 -2163 -2442 129 0
-1758 -2163 2765 -3112 0
-1758 -2163 -2765 3112 0
-1758 -2163 2459 -3119 0
-1758 -2163 -2459 3119 0
-1758 2163 1307 0
-1758 2163 1345 0
-1758 2163 2242 0
-1758 2163 1710 0
-1758 2163 2368 -1345 0
-1758 2163 -2368 1345 0
-1758 2163 2442 -1710 0
-1758 2163 -2442 1710 0
-1758 2163 2765 -1307 0
-1758 2163 -2765 1307 0
-1758 2163 2459 -2242 0
-1758 2163 -2459 2242 0
-1758 2535 0
-1758 186 -2368 0
-1758 -186 2368 0
-1758 469 -2442 0
-1758 -469 2442 0
-1758 1641 -2765 0
-1758 -1641 2765 0
-1758 1939 -2459 0
-1758 -1939 2459 0
1758 -2 -1763 0
1758 -2 -1815 0
1758 -2 2139 0
1758 -2 1671 0
1758 -2 3027 -1815 0
1758 -2 -3027 1815 0
1758 -2 1842 -1671 0
1758 -2 -1842 1671 0
1758 -2 2966 -1763 0
1758 -2 -2966 1763 0
1758 -2 2185 -2139 0
1758 -2 -2185 2139 0
1758 2 2292 0
1758 2 272 0
1758 2 -2034 0
1758 2 -2945 0
1758 2 3027 -272 0
1758 2 -3027 272 0
1758 2 1842 -2945 0
1758 2 -1842 2945 0
1758 2 2966 -2292 0
1758 2 -2966 2292 0
1758 2 2185 -2034 0
1758 2 -2185 2034 0
1758 765 0
1758 186 -3027 0
1758 -186 3027 0
1758 469 -1842 0
1758 -469 1842 0
1758 1641 -2966 0
1758 -1641 2966 0
1758 1939 -2185 0
1758 -1939 2185 0
-2335 -573 -1993 0
-2335 -573 -48 0
-2335 -573 -3105 0
-2335 -573 -1357 0
-2335 -573 159 -48 0
-2335 -573 -159 48 0
-2335 -573 1881 -1357 0
-2335 -573 -1881 1357 0
-2335 -573 2143 -1993 0
-2335 -573 -2143 1993 0
-2335 -573 1919 -3105 0
-2335 -573 -1919 3105 0
-2335 573 26 0
-2335 573 536 0
-2335 573 1014 0
-2335 573 1271 0
-2335 573 159 -536 0
-2335 573 -159 536 0
-2335 573 1881 -1271 0
-2335 573 -1881 1271 0
-2335 573 2143 -26 0
-2335 573 -2143 26 0
-2335 573 1919 -1014 0
-2335 573 -1919 1014 0
-2335 2940 0
-2335 2253 -159 0
-2335 -2253 159 0
-2335 1898 -1881 0
-2335 -1898 1881 0
-2335 186 -2143 0
-2335 -186 2143 0
-2335 1463 -1919 0
-2335 -1463 1919 0
2335 -2286 -2658 0
2335 -2286 -2744 0
2335 -2286 713 0
2335 -2286 2768 0
2335 -2286 225 -2744 0
2335 -2286 -225 2744 0
2335 -2286 2545 -2768 0
2335 -2286 -2545 2768 0
2335 -2286 711 -2658 0
2335 -2286 -711 2658 0
2335 -2286 2845 -713 0
2335 -2286 -2845 713 0
2335 2286 551 0
2335 2286 2787 0
2335 2286 -128 0
2335 2286 -1219 0
2335 2286 225 -2787 0
2335 2286 -225 2787 0
2335 2286 2545 -1219 0
2335 2286 -2545 1219 0
2335 2286 711 -551 0
2335 2286 -711 551 0
2335 2286 2845 -128 0
2335 2286 -2845 128 0
2335 703 0
2335 2253 -225 0
2335 -2253 225 0
2335 1898 -2545 0
2335 -1898 2545 0
2335 186 -711 0
2335 -186 711 0
2335 1463 -2845 0
2335 -1463 2845 0
-2377 -2089 -2609 0
-2377 -2089 -163 0
-2377 -2089 -24 0
-2377 -2089 -2875 0
-2377 -2089 3168 -163 0
-2377 -2089 -3168 163 0
-2377 -2089 1129 -2875 0
-2377 -2089 -1129 2875 0
-2377 -2089 2387 -2609 0
-2377 -2089 -2387 2609 0
-2377 -2089 2513 -24 0
-2377 -2089 -2513 24 0
-2377 2089 1837 0
-2377 2089 1037 0
-2377 2089 375 0
-2377 2089 2520 0
-2377 2089 3168 -1037 0
-2377 2089 -3168 1037 0
-2377 2089 1129 -2520 0
-2377 2089 -1129 2520 0
-2377 2089 2387 -1837 0
-2377 2089 -2387 1837 0
-2377 2089 2513 -375 0
-2377 2089 -2513 375 0
-2377 2804 0
-2377 59 -3168 0
-2377 -59 3168 0
-2377 3084 -1129 0
-2377 -3084 1129 0
-2377 2253 -2387 0
-2377 -2253 2387 0
-2377 2628 -2513 0
-2377 -2628 2513 0
2377 -2285 -1134 0
2377 -2285 -2823 0
2377 -2285 2372 0
2377 -2285 681 0
2377 -2285 686 -2823 0
2377 -2285 -686 2823 0
2377 -2285 671 -681 0
2377 -2285 -671 681 0
2377 -2285 226 -1134 0
2377 -2285 -226 1134 0
2377 -2285 571 -2372 0
2377 -2285 -571 2372 0
2377 2285 596 0
2377 2285 191 0
2377 2285 -2577 0
2377 2285 -390 0
2377 2285 686 -191 0
2377 2285 -686 191 0
2377 2285 671 -390 0
2377 2285 -671 390 0
2377 2285 226 -596 0
2377 2285 -226 596 0
2377 2285 571 -2577 0
2377 2285 -571 2577 0
2377 1390 0
2377 59 -686 0
2377 -59 686 0
2377 3084 -671 0
2377 -3084 671 0
2377 2253 -226 0
2377 -2253 226 0
2377 2628 -571 0
2377 -2628 571 0
-2161 -2920 -258 0
-2161 -2920 -2068 0
-2161 -2920 -701 0
-2161 -2920 -2677 0
-2161 -2920 2432 -2068 0
-2161 -2920 -2432 2068 0
-2161 -2920 2116 -2677 0
-2161 -2920 -2116 2677 0
-2161 -2920 138 -258 0
-2161 -2920 -138 258 0
-2161 -2920 1806 -701 0
-2161 -2920 -1806 701 0
-2161 2920 246 0
-2161 2920 1184 0
-2161 2920 1209 0
-2161 2920 922 0
-2161 2920 2432 -1184 0
-2161 2920 -2432 1184 0
-2161 2920 2116 -922 0
-2161 2920 -2116 922 0
-2161 2920 138 -246 0
-2161 2920 -138 246 0
-2161 2920 1806 -1209 0
-2161 2920 -1806 1209 0
-2161 3178 0
-2161 1598 -2432 0
-2161 -1598 2432 0
-2161 421 -2116 0
-2161 -421 2116 0
-2161 319 -138 0
-2161 -319 138 0
-2161 1366 -1806 0
-2161 -1366 1806 0
2161 -208 -5 0
2161 -208 -1329 0
2161 -208 2530 0
2161 -208 411 0
2161 -208 1170 -1329 0
2161 -208 -1170 1329 0
2161 -208 1457 -411 0
2161 -208 -1457 411 0
2161 -208 1078 -5 0
2161 -208 -1078 5 0
2161 -208 1737 -2530 0
2161 -208 -1737 2530 0
2161 208 2199 0
2161 208 2029 0
2161 208 -2527 0
2161 208 -2356 0
2161 208 1170 -2029 0
2161 208 -1170 2029 0
2161 208 1457 -2356 0
2161 208 -1457 2356 0
2161 208 1078 -2199 0
2161 208 -1078 2199 0
2161 208 1737 -2527 0
2161 208 -1737 2527 0
2161 2716 0
2161 1598 -1170 0
2161 -1598 1170 0
2161 421 -1457 0
2161 -421 1457 0
2161 319 -1078 0
2161 -319 1078 0
2161 1366 -1737 0
2161 -1366 1737 0
-1029 -1946 -646 0
-1029 -1946 -736 0
-1029 -1946 -1115 0
-1029 -1946 -2843 0
-1029 -1946 1467 -736 0
-1029 -1946 -1467 736 0
-1029 -1946 2689 -2843 0
-1029 -1946 -2689 2843 0
-1029 -1946 2456 -646 0
-1029 -1946 -2456 646 0
-1029 -1946 606 -1115 0
-1029 -1946 -606 1115 0
-1029 1946 1503 0
-1029 1946 1128 0
-1029 1946 1823 0
-1029 1946 1064 0
-1029 1946 1467 -1128 0
-1029 1946 -1467 1128 0
-1029 1946 2689 -1064 0
-1029 1946 -2689 1064 0
-1029 1946 2456 -1503 0
-1029 1946 -2456 1503 0
-1029 1946 606 -1823 0
-1029 1946 -606 1823 0
-1029 293 0
-1029 2431 -1467 0
-1029 -2431 1467 0
-1029 1954 -2689 0
-1029 -1954 2689 0
-1029 1598 -2456 0
-1029 -1598 2456 0
-1029 883 -606 0
-1029 -883 606 0
1029 -1871 -1513 0
1029 -1871 -2105 0
1029 -1871 1742 0
1029 -1871 541 0
1029 -1871 1369 -2105 0
1029 -1871 -1369 2105 0
1029 -1871 1408 -541 0
1029 -1871 -1408 541 0
1029 -1871 1297 -1513 0
1029 -1871 -1297 1513 0
1029 -1871 2309 -1742 0
1029 -1871 -2309 1742 0
1029 1871 1081 0
1029 1871 2326 0
1029 1871 -2269 0
1029 1871 -2375 0
1029 1871 1369 -2326 0
1029 1871 -1369 2326 0
1029 1871 1408 -2375 0
1029 1871 -1408 2375 0
1029 1871 1297 -1081 0
1029 1871 -1297 1081 0
1029 1871 2309 -2269 0
1029 1871 -2309 2269 0
1029 1606 0
1029 2431 -1369 0
1029 -2431 1369 0
1029 1954 -1408 0
1029 -1954 1408 0
1029 1598 -1297 0
1029 -1598 1297 0
1029 883 -2309 0
1029 -883 2309 0
-780 -2101 -3063 0
-780 -2101 -325 0
-780 -2101 -760 0
-780 -2101 -2488 0
-780 -2101 303 -325 0
-780 -2101 -303 325 0
-780 -2101 2777 -2488 0
-780 -2101 -2777 2488 0
-780 -2101 2141 -3063 0
-780 -2101 -2141 3063 0
-780 -2101 2636 -760 0
-780 -2101 -2636 760 0
-780 2101 1196 0
-780 2101 1148 0
-780 2101 432 0
-780 2101 1783 0
-780 2101 303 -1148 0
-780 2101 -303 1148 0
-780 2101 2777 -1783 0
-780 2101 -2777 1783 0
-780 2101 2141 -1196 0
-780 2101 -2141 1196 0
-780 2101 2636 -432 0
-780 2101 -2636 432 0
-780 2381 0
-780 2525 -303 0
-780 -2525 303 0
-780 848 -2777 0
-780 -848 2777 0
-780 2431 -2141 0
-780 -2431 2141 0
-780 1301 -2636 0
-780 -1301 2636 0
780 -1302 -1760 0
780 -1302 -1414 0
780 -1302 1204 0
780 -1302 2466 0
780 -1302 695 -1414 0
780 -1302 -695 1414 0
780 -1302 702 -2466 0
780 -1302 -702 2466 0
780 -1302 2864 -1760 0
780 -1302 -2864 1760 0
780 -1302 1507 -1204 0
780 -1302 -1507 1204 0
780 1302 3189 0
780 1302 433 0
780 1302 -1253 0
780 1302 -407 0
780 1302 695 -433 0
780 1302 -695 433 0
780 1302 702 -407 0
780 1302 -702 407 0
780 1302 2864 -3189 0
780 1302 -2864 3189 0
780 1302 1507 -1253 0
780 1302 -1507 1253 0
780 1985 0
780 2525 -695 0
780 -2525 695 0
780 848 -702 0
780 -848 702 0
780 2431 -2864 0
780 -2431 2864 0
780 1301 -1507 0
780 -1301 1507 0
-1428 -2560 -2606 0
-1428 -2560 -946 0
-1428 -2560 -2728 0
-1428 -2560 -2783 0
-1428 -2560 1084 -946 0
-1428 -2560 -1084 946 0
-1428 -2560 2134 -2783 0
-1428 -2560 -2134 2783 0
-1428 -2560 235 -2606 0
-1428 -2560 -235 2606 0
-1428 -2560 891 -2728 0
-1428 -2560 -891 2728 0
-1428 2560 1212 0
-1428 2560 1713 0
-1428 2560 1941 0
-1428 2560 3184 0
-1428 2560 1084 -1713 0
-1428 2560 -1084 1713 0
-1428 2560 2134 -3184 0
-1428 2560 -2134 3184 0
-1428 2560 235 -1212 0
-1428 2560 -235 1212 0
-1428 2560 891 -1941 0
-1428 2560 -891 1941 0
-1428 232 0
-1428 1482 -1084 0
-1428 -1482 1084 0
-1428 3123 -2134 0
-1428 -3123 2134 0
-1428 435 -235 0
-1428 -435 235 0
-1428 1642 -891 0
-1428 -1642 891 0
1428 -982 -592 0
1428 -982 -1257 0
1428 -982 125 0
1428 -982 1375 0
1428 -982 1373 -1257 0
1428 -982 -1373 1257 0
1428 -982 559 -1375 0
1428 -982 -559 1375 0
1428 -982 1585 -592 0
1428 -982 -1585 592 0
1428 -982 3073 -125 0
1428 -982 -3073 125 0
1428 982 524 0
1428 982 1962 0
1428 982 -1578 0
1428 982 -1210 0
1428 982 1373 -1962 0
1428 982 -1373 1962 0
1428 982 559 -1210 0
1428 982 -559 1210 0
1428 982 1585 -524 0
1428 982 -1585 524 0
1428 982 3073 -1578 0
1428 982 -3073 1578 0
1428 2468 0
1428 1482 -1373 0
1428 -1482 1373 0
1428 3123 -559 0
1428 -3123 559 0
1428 435 -1585 0
1428 -435 1585 0
1428 1642 -3073 0
1428 -1642 3073 0
-1995 -2713 -2095 0
-1995 -2713 -1567 0
-1995 -2713 -3110 0
-1995 -2713 -2564 0
-1995 -2713 3017 -1567 0
-1995 -2713 -3017 1567 0
-1995 -2713 1519 -2564 0
-1995 -2713 -1519 2564 0
-1995 -2713 767 -2095 0
-1995 -2713 -767 2095 0
-1995 -2713 1347 -3110 0
-1995 -2713 -1347 3110 0
-1995 2713 428 0
-1995 2713 1593 0
-1995 2713 3086 0
-1995 2713 2618 0
-1995 2713 3017 -1593 0
-1995 2713 -3017 1593 0
-1995 2713 1519 -2618 0
-1995 2713 -1519 2618 0
-1995 2713 767 -428 0
-1995 2713 -767 428 0
-1995 2713 1347 -3086 0
-1995 2713 -1347 3086 0
-1995 234 0
-1995 487 -3017 0
-1995 -487 3017 0
-1995 102 -1519 0
-1995 -102 1519 0
-1995 1482 -767 0
-1995 -1482 767 0
-1995 1492 -1347 0
-1995 -1492 1347 0
1995 -1584 -2000 0
1995 -1584 -1050 0
1995 -1584 2604 0
1995 -1584 2591 0
1995 -1584 214 -1050 0
1995 -1584 -214 1050 0
1995 -1584 745 -2591 0
1995 -1584 -745 2591 0
1995 -1584 343 -2000 0
1995 -1584 -343 2000 0
1995 -1584 871 -2604 0
1995 -1584 -871 2604 0
1995 1584 1499 0
1995 1584 1460 0
1995 1584 -942 0
1995 1584 -2018 0
1995 1584 214 -1460 0
1995 1584 -214 1460 0
1995 1584 745 -2018 0
1995 1584 -745 2018 0
1995 1584 343 -1499 0
1995 1584 -343 1499 0
1995 1584 871 -942 0
1995 1584 -871 942 0
1995 2638 0
1995 487 -214 0
1995 -487 214 0
1995 102 -745 0
1995 -102 745 0
1995 1482 -343 0
1995 -1482 343 0
1995 1492 -871 0
1995 -1492 871 0
-1984 -2927 -2938 0
-1984 -2927 -1702 0
-1984 -2927 -1336 0
-1984 -2927 -1464 0
-1984 -2927 1143 -1702 0
-1984 -2927 -1143 1702 0
-1984 -2927 2069 -1464 0
-1984 -2927 -2069 1464 0
-1984 -2927 1003 -2938 0
-1984 -2927 -1003 2938 0
-1984 -2927 750 -1336 0
-1984 -2927 -750 1336 0
-1984 2927 2813 0
-1984 2927 1097 0
-1984 2927 2282 0
-1984 2927 1549 0
-1984 2927 1143 -1097 0
-1984 2927 -1143 1097 0
-1984 2927 2069 -1549 0
-1984 2927 -2069 1549 0
-1984 2927 1003 -2813 0
-1984 2927 -1003 2813 0
-1984 2927 750 -2282 0
-1984 2927 -750 2282 0
-1984 384 0
-1984 13 -1143 0
-1984 -13 1143 0
-1984 378 -2069 0
-1984 -378 2069 0
-1984 1289 -1003 0
-1984 -1289 1003 0
-1984 201 -750 0
-1984 -201 750 0
1984 -2447 -422 0
1984 -2447 -1843 0
1984 -2447 2424 0
1984 -2447 1262 0
1984 -2447 1996 -1843 0
1984 -2447 -1996 1843 0
1984 -2447 951 -1262 0
1984 -2447 -951 1262 0
1984 -2447 1632 -422 0
1984 -2447 -1632 422 0
1984 -2447 856 -2424 0
1984 -2447 -856 2424 0
1984 2447 1085 0
1984 2447 864 0
1984 2447 -1928 0
1984 2447 -2779 0
1984 2447 1996 -864 0
1984 2447 -1996 864 0
1984 2447 951 -2779 0
1984 2447 -951 2779 0
1984 2447 1632 -1085 0
1984 2447 -1632 1085 0
1984 2447 856 -1928 0
1984 2447 -856 1928 0
1984 368 0
1984 13 -1996 0
1984 -13 1996 0
1984 378 -951 0
1984 -378 951 0
1984 1289 -1632 0
1984 -1289 1632 0
1984 201 -856 0
1984 -201 856 0
-1800 -1205 -376 0
-1800 -1205 -3046 0
-1800 -1205 -2003 0
-1800 -1205 -2476 0
-1800 -1205 2441 -3046 0
-1800 -1205 -2441 3046 0
-1800 -1205 404 -2476 0
-1800 -1205 -404 2476 0
-1800 -1205 739 -376 0
-1800 -1205 -739 376 0
-1800 -1205 2300 -2003 0
-1800 -1205 -2300 2003 0
-1800 1205 337 0
-1800 1205 2115 0
-1800 1205 58 0
-1800 1205 1061 0
-1800 1205 2441 -2115 0
-1800 1205 -2441 2115 0
-1800 1205 404 -1061 0
-1800 1205 -404 1061 0
-1800 1205 739 -337 0
-1800 1205 -739 337 0
-1800 1205 2300 -58 0
-1800 1205 -2300 58 0
-1800 2978 0
-1800 973 -2441 0
-1800 -973 2441 0
-1800 1716 -404 0
-1800 -1716 404 0
-1800 13 -739 0
-1800 -13 739 0
-1800 3084 -2300 0
-1800 -3084 2300 0
1800 -2173 -1613 0
1800 -2173 -103 0
1800 -2173 1556 0
1800 -2173 2492 0
1800 -2173 3145 -103 0
1800 -2173 -3145 103 0
1800 -2173 2849 -2492 0
1800 -2173 -2849 2492 0
1800 -2173 126 -1613 0
1800 -2173 -126 1613 0
1800 -2173 1140 -1556 0
1800 -2173 -1140 1556 0
1800 2173 933 0
1800 2173 1840 0
1800 2173 -3091 0
1800 2173 -1949 0
1800 2173 3145 -1840 0
1800 2173 -3145 1840 0
1800 2173 2849 -1949 0
1800 2173 -2849 1949 0
1800 2173 126 -933 0
1800 2173 -126 933 0
1800 2173 1140 -3091 0
1800 2173 -1140 3091 0
1800 1306 0
1800 973 -3145 0
1800 -973 3145 0
1800 1716 -2849 0
1800 -1716 2849 0
1800 13 -126 0
1800 -13 126 0
1800 3084 -1140 0
1800 -3084 1140 0
-1074 -1604 -823 0
-1074 -1604 -414 0
-1074 -1604 -2455 0
-1074 -1604 -2220 0
-1074 -1604 2109 -414 0
-1074 -1604 -2109 414 0
-1074 -1604 2365 -2220 0
-1074 -1604 -2365 2220 0
-1074 -1604 3018 -823 0
-1074 -1604 -3018 823 0
-1074 -1604 1121 -2455 0
-1074 -1604 -1121 2455 0
-1074 1604 2297 0
-1074 1604 976 0
-1074 1604 2542 0
-1074 1604 2460 0
-1074 1604 2109 -976 0
-1074 1604 -2109 976 0
-1074 1604 2365 -2460 0
-1074 1604 -2365 2460 0
-1074 1604 3018 -2297 0
-1074 1604 -3018 2297 0
-1074 1604 1121 -2542 0
-1074 1604 -1121 2542 0
-1074 1431 0
-1074 3114 -2109 0
-1074 -3114 2109 0
-1074 2924 -2365 0
-1074 -2924 2365 0
-1074 692 -3018 0
-1074 -692 3018 0
-1074 789 -1121 0
-1074 -789 1121 0
1074 -2490 -1674 0
1074 -2490 -1717 0
1074 -2490 1045 0
1074 -2490 2121 0
1074 -2490 2043 -1717 0
1074 -2490 -2043 1717 0
1074 -2490 1680 -2121 0
1074 -2490 -1680 2121 0
1074 -2490 2593 -1674 0
1074 -2490 -2593 1674 0
1074 -2490 2265 -1045 0
1074 -2490 -2265 1045 0
1074 2490 12 0
1074 2490 557 0
1074 2490 -608 0
1074 2490 -2102 0
1074 2490 2043 -557 0
1074 2490 -2043 557 0
1074 2490 1680 -2102 0
1074 2490 -1680 2102 0
1074 2490 2593 -12 0
1074 2490 -2593 12 0
1074 2490 2265 -608 0
1074 2490 -2265 608 0
1074 2394 0
1074 3114 -2043 0
1074 -3114 2043 0
1074 2924 -1680 0
1074 -2924 1680 0
1074 692 -2593 0
1074 -692 2593 0
1074 789 -2265 0
1074 -789 2265 0
-2543 -566 -2810 0
-2543 -566 -3146 0
-2543 -566 -10 0
-2543 -566 -803 0
-2543 -566 1527 -3146 0
-2543 -566 -1527 3146 0
-2543 -566 1071 -803 0
-2543 -566 -1071 803 0
-2543 -566 1953 -2810 0
-2543 -566 -1953 2810 0
-2543 -566 1515 -10 0
-2543 -566 -1515 10 0
-2543 566 2256 0
-2543 566 2251 0
-2543 566 620 0
-2543 566 2871 0
-2543 566 1527 -2251 0
-2543 566 -1527 2251 0
-2543 566 1071 -2871 0
-2543 566 -1071 2871 0
-2543 566 1953 -2256 0
-2543 566 -1953 2256 0
-2543 566 1515 -620 0
-2543 566 -1515 620 0
-2543 42 0
-2543 1509 -1527 0
-2543 -1509 1527 0
-2543 746 -1071 0
-2543 -746 1071 0
-2543 260 -1953 0
-2543 -260 1953 0
-2543 1971 -1515 0
-2543 -1971 1515 0
2543 -1077 -2193 0
2543 -1077 -2722 0
2543 -1077 2726 0
2543 -1077 2868 0
2543 -1077 905 -2722 0
2543 -1077 -905 2722 0
2543 -1077 2406 -2868 0
2543 -1077 -2406 2868 0
2543 -1077 734 -2193 0
2543 -1077 -734 2193 0
2543 -1077 1580 -2726 0
2543 -1077 -1580 2726 0
2543 1077 2070 0
2543 1077 1497 0
2543 1077 -1645 0
2543 1077 -1886 0
2543 1077 905 -1497 0
2543 1077 -905 1497 0
2543 1077 2406 -1886 0
2543 1077 -2406 1886 0
2543 1077 734 -2070 0
2543 1077 -734 2070 0
2543 1077 1580 -1645 0
2543 1077 -1580 1645 0
2543 2177 0
2543 1509 -905 0
2543 -1509 905 0
2543 746 -2406 0
2543 -746 2406 0
2543 260 -734 0
2543 -260 734 0
2543 1971 -1580 0
2543 -1971 1580 0
-465 -577 -2037 0
-465 -577 -1079 0
-465 -577 -928 0
-465 -577 -3004 0
-465 -577 660 -1079 0
-465 -577 -660 1079 0
-465 -577 1175 -3004 0
-465 -577 -1175 3004 0
-465 -577 2578 -2037 0
-465 -577 -2578 2037 0
-465 -577 463 -928 0
-465 -577 -463 928 0
-465 577 1238 0
-465 577 2922 0
-465 577 2951 0
-465 577 885 0
-465 577 660 -2922 0
-465 577 -660 2922 0
-465 577 1175 -885 0
-465 577 -1175 885 0
-465 577 2578 -1238 0
-465 577 -2578 1238 0
-465 577 463 -2951 0
-465 577 -463 2951 0
-465 3048 0
-465 747 -660 0
-465 -747 660 0
-465 2169 -1175 0
-465 -2169 1175 0
-465 1509 -2578 0
-465 -1509 2578 0
-465 1246 -463 0
-465 -1246 463 0
465 -166 -1122 0
465 -166 -1566 0
465 -166 1292 0
465 -166 1831 0
465 -166 784 -1566 0
465 -166 -784 1566 0
465 -166 1021 -1831 0
465 -166 -1021 1831 0
465 -166 1539 -1122 0
465 -166 -1539 1122 0
465 -166 116 -1292 0
465 -166 -116 1292 0
465 166 2652 0
465 166 425 0
465 166 -451 0
465 166 -2659 0
465 166 784 -425 0
465 166 -784 425 0
465 166 1021 -2659 0
465 166 -1021 2659 0
465 166 1539 -2652 0
465 166 -1539 2652 0
465 166 116 -451 0
465 166 -116 451 0
465 1682 0
465 747 -784 0
465 -747 784 0
465 2169 -1021 0
465 -2169 1021 0
465 1509 -1539 0
465 -1509 1539 0
465 1246 -116 0
465 -1246 116 0
-1299 -1596 -1237 0
-1299 -1596 -151 0
-1299 -1596 -165 0
-1299 -1596 -3183 0
-1299 -1596 371 -151 0
-1299 -1596 -371 151 0
-1299 -1596 2506 -3183 0
-1299 -1596 -2506 3183 0
-1299 -1596 1704 -1237 0
-1299 -1596 -1704 1237 0
-1299 -1596 1183 -165 0
-1299 -1596 -1183 165 0
-1299 1596 391 0
-1299 1596 169 0
-1299 1596 958 0
-1299 1596 2200 0
-1299 1596 371 -169 0
-1299 1596 -371 169 0
-1299 1596 2506 -2200 0
-1299 1596 -2506 2200 0
-1299 1596 1704 -391 0
-1299 1596 -1704 391 0
-1299 1596 1183 -958 0
-1299 1596 -1183 958 0
-1299 2084 0
-1299 2968 -371 0
-1299 -2968 371 0
-1299 1848 -2506 0
-1299 -1848 2506 0
-1299 747 -1704 0
-1299 -747 1704 0
-1299 2136 -1183 0
-1299 -2136 1183 0
1299 -2536 -1594 0
1299 -2536 -1206 0
1299 -2536 1200 0
1299 -2536 2477 0
1299 -2536 2914 -1206 0
1299 -2536 -2914 1206 0
1299 -2536 3066 -2477 0
1299 -2536 -3066 2477 0
1299 -2536 1694 -1594 0
1299 -2536 -1694 1594 0
1299 -2536 1683 -1200 0
1299 -2536 -1683 1200 0
1299 2536 416 0
1299 2536 2601 0
1299 2536 -2363 0
1299 2536 -1483 0
1299 2536 2914 -2601 0
1299 2536 -2914 2601 0
1299 2536 3066 -1483 0
1299 2536 -3066 1483 0
1299 2536 1694 -416 0
1299 2536 -1694 416 0
1299 2536 1683 -2363 0
1299 2536 -1683 2363 0
1299 139 0
1299 2968 -2914 0
1299 -2968 2914 0
1299 1848 -3066 0
1299 -1848 3066 0
1299 747 -1694 0
1299 -747 1694 0
1299 2136 -1683 0
1299 -2136 1683 0
-171 -2001 -1724 0
-171 -2001 -873 0
-171 -2001 -204 0
-171 -2001 -338 0
-171 -2001 727 -873 0
-171 -2001 -727 873 0
-171 -2001 1009 -338 0
-171 -2001 -1009 338 0
-171 -2001 776 -1724 0
-171 -2001 -776 1724 0
-171 -2001 1793 -204 0
-171 -2001 -1793 204 0
-171 2001 1920 0
-171 2001 161 0
-171 2001 2334 0
-171 2001 1019 0
-171 2001 727 -161 0
-171 2001 -727 161 0
-171 2001 1009 -1019 0
-171 2001 -1009 1019 0
-171 2001 776 -1920 0
-171 2001 -776 1920 0
-171 2001 1793 -2334 0
-171 2001 -1793 2334 0
-171 3098 0
-171 3122 -727 0
-171 -3122 727 0
-171 51 -1009 0
-171 -51 1009 0
-171 2968 -776 0
-171 -2968 776 0
-171 1716 -1793 0
-171 -1716 1793 0
171 -1092 -326 0
171 -1092 -2362 0
171 -1092 2306 0
171 -1092 1056 0
171 -1092 2463 -2362 0
171 -1092 -2463 2362 0
171 -1092 1855 -1056 0
171 -1092 -1855 1056 0
171 -1092 1082 -326 0
171 -1092 -1082 326 0
171 -1092 819 -2306 0
171 -1092 -819 2306 0
171 1092 675 0
171 1092 2651 0
171 1092 -2786 0
171 1092 -3016 0
171 1092 2463 -2651 0
171 1092 -2463 2651 0
171 1092 1855 -3016 0
171 1092 -1855 3016 0
171 1092 1082 -675 0
171 1092 -1082 675 0
171 1092 819 -2786 0
171 1092 -819 2786 0
171 1624 0
171 3122 -2463 0
171 -3122 2463 0
171 51 -1855 0
171 -51 1855 0
171 2968 -1082 0
171 -2968 1082 0
171 1716 -819 0
171 -1716 819 0
-1178 -1441 -1004 0
-1178 -1441 -1565 0
-1178 -1441 -1667 0
-1178 -1441 -1707 0
-1178 -1441 2729 -1565 0
-1178 -1441 -2729 1565 0
-1178 -1441 2795 -1707 0
-1178 -1441 -2795 1707 0
-1178 -1441 357 -1004 0
-1178 -1441 -357 1004 0
-1178 -1441 1789 -1667 0
-1178 -1441 -1789 1667 0
-1178 1441 2986 0
-1178 1441 663 0
-1178 1441 1093 0
-1178 1441 307 0
-1178 1441 2729 -663 0
-1178 1441 -2729 663 0
-1178 1441 2795 -307 0
-1178 1441 -2795 307 0
-1178 1441 357 -2986 0
-1178 1441 -357 2986 0
-1178 1441 1789 -1093 0
-1178 1441 -1789 1093 0
-1178 2324 0
-1178 2496 -2729 0
-1178 -2496 2729 0
-1178 2825 -2795 0
-1178 -2825 2795 0
-1178 3123 -357 0
-1178 -3123 357 0
-1178 1044 -1789 0
-1178 -1044 1789 0
1178 -2038 -2946 0
1178 -2038 -1571 0
1178 -2038 2551 0
1178 -2038 2367 0
1178 -2038 1630 -1571 0
1178 -2038 -1630 1571 0
1178 -2038 1808 -2367 0
1178 -2038 -1808 2367 0
1178 -2038 2014 -2946 0
1178 -2038 -2014 2946 0
1178 -2038 3036 -2551 0
1178 -2038 -3036 2551 0
1178 2038 341 0
1178 2038 252 0
1178 2038 -2414 0
1178 2038 -1142 0
1178 2038 1630 -252 0
1178 2038 -1630 252 0
1178 2038 1808 -1142 0
1178 2038 -1808 1142 0
1178 2038 2014 -341 0
1178 2038 -2014 341 0
1178 2038 3036 -2414 0
1178 2038 -3036 2414 0
1178 1211 0
1178 2496 -1630 0
1178 -2496 1630 0
1178 2825 -1808 0
1178 -2825 1808 0
1178 3123 -2014 0
1178 -3123 2014 0
1178 1044 -3036 0
1178 -1044 3036 0
-1933 -2332 -1516 0
-1933 -2332 -587 0
-1933 -2332 -2647 0
-1933 -2332 -1955 0
-1933 -2332 29 -587 0
-1933 -2332 -29 587 0
-1933 -2332 1915 -1955 0
-1933 -2332 -1915 1955 0
-1933 -2332 1149 -1516 0
-1933 -2332 -1149 1516 0
-1933 -2332 2672 -2647 0
-1933 -2332 -2672 2647 0
-1933 2332 387 0
-1933 2332 3031 0
-1933 2332 1088 0
-1933 2332 1542 0
-1933 2332 29 -3031 0
-1933 2332 -29 3031 0
-1933 2332 1915 -1542 0
-1933 2332 -1915 1542 0
-1933 2332 1149 -387 0
-1933 2332 -1149 387 0
-1933 2332 2672 -1088 0
-1933 2332 -2672 1088 0
-1933 114 0
-1933 2374 -29 0
-1933 -2374 29 0
-1933 1744 -1915 0
-1933 -1744 1915 0
-1933 2496 -1149 0
-1933 -2496 1149 0
-1933 1490 -2672 0
-1933 -1490 2672 0
1933 -753 -1277 0
1933 -753 -833 0
1933 -753 2999 0
1933 -753 2743 0
1933 -753 535 -833 0
1933 -753 -535 833 0
1933 -753 971 -2743 0
1933 -753 -971 2743 0
1933 -753 2737 -1277 0
1933 -753 -2737 1277 0
1933 -753 1339 -2999 0
1933 -753 -1339 2999 0
1933 753 1013 0
1933 753 110 0
1933 753 -2194 0
1933 753 -81 0
1933 753 535 -110 0
1933 753 -535 110 0
1933 753 971 -81 0
1933 753 -971 81 0
1933 753 2737 -1013 0
1933 753 -2737 1013 0
1933 753 1339 -2194 0
1933 753 -1339 2194 0
1933 467 0
1933 2374 -535 0
1933 -2374 535 0
1933 1744 -971 0
1933 -1744 971 0
1933 2496 -2737 0
1933 -2496 2737 0
1933 1490 -1339 0
1933 -1490 1339 0
-2725 -1741 -1227 0
-2725 -1741 -2902 0
-2725 -1741 -2483 0
-2725 -1741 -395 0
-2725 -1741 977 -2902 0
-2725 -1741 -977 2902 0
-2725 -1741 1752 -395 0
-2725 -1741 -1752 395 0
-2725 -1741 294 -1227 0
-2725 -1741 -294 1227 0
-2725 -1741 1353 -2483 0
-2725 -1741 -1353 2483 0
-2725 1741 1348 0
-2725 1741 2961 0
-2725 1741 2791 0
-2725 1741 1722 0
-2725 1741 977 -2961 0
-2725 1741 -977 2961 0
-2725 1741 1752 -1722 0
-2725 1741 -1752 1722 0
-2725 1741 294 -1348 0
-2725 1741 -294 1348 0
-2725 1741 1353 -2791 0
-2725 1741 -1353 2791 0
-2725 2137 0
-2725 911 -977 0
-2725 -911 977 0
-2725 2794 -1752 0
-2725 -2794 1752 0
-2725 2374 -294 0
-2725 -2374 294 0
-2725 1399 -1353 0
-2725 -1399 1353 0
2725 -92 -2380 0
2725 -92 -868 0
2725 -92 914 0
2725 -92 2148 0
2725 -92 2481 -868 0
2725 -92 -2481 868 0
2725 -92 3137 -2148 0
2725 -92 -3137 2148 0
2725 -92 2792 -2380 0
2725 -92 -2792 2380 0
2725 -92 2510 -914 0
2725 -92 -2510 914 0
2725 92 269 0
2725 92 851 0
2725 92 -2077 0
2725 92 -635 0
2725 92 2481 -851 0
2725 92 -2481 851 0
2725 92 3137 -635 0
2725 92 -3137 635 0
2725 92 2792 -269 0
2725 92 -2792 269 0
2725 92 2510 -2077 0
2725 92 -2510 2077 0
2725 91 0
2725 911 -2481 0
2725 -911 2481 0
2725 2794 -3137 0
2725 -2794 3137 0
2725 2374 -2792 0
2725 -2374 2792 0
2725 1399 -2510 0
2725 -1399 2510 0
-2626 -399 -1117 0
-2626 -399 -2124 0
-2626 -399 -348 0
-2626 -399 -2937 0
-2626 -399 647 -2124 0
-2626 -399 -647 2124 0
-2626 -399 508 -2937 0
-2626 -399 -508 2937 0
-2626 -399 893 -1117 0
-2626 -399 -893 1117 0
-2626 -399 1975 -348 0
-2626 -399 -1975 348 0
-2626 399 1813 0
-2626 399 2246 0
-2626 399 2974 0
-2626 399 1225 0
-2626 399 647 -2246 0
-2626 399 -647 2246 0
-2626 399 508 -1225 0
-2626 399 -508 1225 0
-2626 399 893 -1813 0
-2626 399 -893 1813 0
-2626 399 1975 -2974 0
-2626 399 -1975 2974 0
-2626 297 0
-2626 853 -647 0
-2626 -853 647 0
-2626 1510 -508 0
-2626 -1510 508 0
-2626 911 -893 0
-2626 -911 893 0
-2626 51 -1975 0
-2626 -51 1975 0
2626 -525 -3 0
2626 -525 -1410 0
2626 -525 3062 0
2626 -525 923 0
2626 -525 11 -1410 0
2626 -525 -11 1410 0
2626 -525 3142 -923 0
2626 -525 -3142 923 0
2626 -525 2821 -3 0
2626 -525 -2821 3 0
2626 -525 1655 -3062 0
2626 -525 -1655 3062 0
2626 525 743 0
2626 525 1900 0
2626 525 -317 0
2626 525 -2304 0
2626 525 11 -1900 0
2626 525 -11 1900 0
2626 525 3142 -2304 0
2626 525 -3142 2304 0
2626 525 2821 -743 0
2626 525 -2821 743 0
2626 525 1655 -317 0
2626 525 -1655 317 0
2626 1043 0
2626 853 -11 0
2626 -853 11 0
2626 1510 -3142 0
2626 -1510 3142 0
2626 911 -2821 0
2626 -911 2821 0
2626 51 -1655 0
2626 -51 1655 0
-3155 -2352 -2772 0
-3155 -2352 -637 0
-3155 -2352 -462 0
-3155 -2352 -2403 0
-3155 -2352 2798 -637 0
-3155 -2352 -2798 637 0
-3155 -2352 216 -2403 0
-3155 -2352 -216 2403 0
-3155 -2352 2719 -2772 0
-3155 -2352 -2719 2772 0
-3155 -2352 2970 -462 0
-3155 -2352 -2970 462 0
-3155 2352 1982 0
-3155 2352 665 0
-3155 2352 718 0
-3155 2352 2918 0
-3155 2352 2798 -665 0
-3155 2352 -2798 665 0
-3155 2352 216 -2918 0
-3155 2352 -216 2918 0
-3155 2352 2719 -1982 0
-3155 2352 -2719 1982 0
-3155 2352 2970 -718 0
-3155 2352 -2970 718 0
-3155 1310 0
-3155 2694 -2798 0
-3155 -2694 2798 0
-3155 1321 -216 0
-3155 -1321 216 0
-3155 2950 -2719 0
-3155 -2950 2719 0
-3155 712 -2970 0
-3155 -712 2970 0
3155 -2261 -1002 0
3155 -2261 -2212 0
3155 -2261 1762 0
3155 -2261 2980 0
3155 -2261 2277 -2212 0
3155 -2261 -2277 2212 0
3155 -2261 2275 -2980 0
3155 -2261 -2275 2980 0
3155 -2261 2398 -1002 0
3155 -2261 -2398 1002 0
3155 -2261 104 -1762 0
3155 -2261 -104 1762 0
3155 2261 1997 0
3155 2261 2847 0
3155 2261 -1986 0
3155 2261 -1443 0
3155 2261 2277 -2847 0
3155 2261 -2277 2847 0
3155 2261 2275 -1443 0
3155 2261 -2275 1443 0
3155 2261 2398 -1997 0
3155 2261 -2398 1997 0
3155 2261 104 -1986 0
3155 2261 -104 1986 0
3155 3117 0
3155 2694 -2277 0
3155 -2694 2277 0
3155 1321 -2275 0
3155 -1321 2275 0
3155 2950 -2398 0
3155 -2950 2398 0
3155 712 -104 0
3155 -712 104 0
-2187 -2808 -1359 0
-2187 -2808 -3108 0
-2187 -2808 -366 0
-2187 -2808 -1863 0
-2187 -2808 1574 -3108 0
-2187 -2808 -1574 3108 0
-2187 -2808 2873 -1863 0
-2187 -2808 -2873 1863 0
-2187 -2808 2226 -1359 0
-2187 -2808 -2226 1359 0
-2187 -2808 1010 -366 0
-2187 -2808 -1010 366 0
-2187 2808 1346 0
-2187 2808 1620 0
-2187 2808 2474 0
-2187 2808 3171 0
-2187 2808 1574 -1620 0
-2187 2808 -1574 1620 0
-2187 2808 2873 -3171 0
-2187 2808 -2873 3171 0
-2187 2808 2226 -1346 0
-2187 2808 -2226 1346 0
-2187 2808 1010 -2474 0
-2187 2808 -1010 2474 0
-2187 1469 0
-2187 2594 -1574 0
-2187 -2594 1574 0
-2187 61 -2873 0
-2187 -61 2873 0
-2187 2694 -2226 0
-2187 -2694 2226 0
-2187 273 -1010 0
-2187 -273 1010 0
2187 -2917 -122 0
2187 -2917 -1945 0
2187 -2917 579 0
2187 -2917 489 0
2187 -2917 346 -1945 0
2187 -2917 -346 1945 0
2187 -2917 626 -489 0
2187 -2917 -626 489 0
2187 -2917 316 -122 0
2187 -2917 -316 122 0
2187 -2917 2650 -579 0
2187 -2917 -2650 579 0
2187 2917 1255 0
2187 2917 2118 0
2187 2917 -1324 0
2187 2917 -787 0
2187 2917 346 -2118 0
2187 2917 -346 2118 0
2187 2917 626 -787 0
2187 2917 -626 787 0
2187 2917 316 -1255 0
2187 2917 -316 1255 0
2187 2917 2650 -1324 0
2187 2917 -2650 1324 0
2187 491 0
2187 2594 -346 0
2187 -2594 346 0
2187 61 -626 0
2187 -61 626 0
2187 2694 -316 0
2187 -2694 316 0
2187 273 -2650 0
2187 -273 2650 0
-2186 -2301 -441 0
-2186 -2301 -764 0
-2186 -2301 -1063 0
-2186 -2301 -3049 0
-2186 -2301 995 -764 0
-2186 -2301 -995 764 0
-2186 -2301 693 -3049 0
-2186 -2301 -693 3049 0
-2186 -2301 1904 -441 0
-2186 -2301 -1904 441 0
-2186 -2301 619 -1063 0
-2186 -2301 -619 1063 0
-2186 2301 1977 0
-2186 2301 3069 0
-2186 2301 1451 0
-2186 2301 473 0
-2186 2301 995 -3069 0
-2186 2301 -995 3069 0
-2186 2301 693 -473 0
-2186 2301 -693 473 0
-2186 2301 1904 -1977 0
-2186 2301 -1904 1977 0
-2186 2301 619 -1451 0
-2186 2301 -619 1451 0
-2186 1759 0
-2186 2027 -995 0
-2186 -2027 995 0
-2186 1767 -693 0
-2186 -1767 693 0
-2186 2594 -1904 0
-2186 -2594 1904 0
-2186 1773 -619 0
-2186 -1773 619 0
2186 -852 -910 0
2186 -852 -2397 0
2186 -852 876 0
2186 -852 2625 0
2186 -852 2866 -2397 0
2186 -852 -2866 2397 0
2186 -852 1733 -2625 0
2186 -852 -1733 2625 0
2186 -852 786 -910 0
2186 -852 -786 910 0
2186 -852 493 -876 0
2186 -852 -493 876 0
2186 852 1309 0
2186 852 1690 0
2186 852 -353 0
2186 852 -183 0
2186 852 2866 -1690 0
2186 852 -2866 1690 0
2186 852 1733 -183 0
2186 852 -1733 183 0
2186 852 786 -1309 0
2186 852 -786 1309 0
2186 852 493 -353 0
2186 852 -493 353 0
2186 2167 0
2186 2027 -2866 0
2186 -2027 2866 0
2186 1767 -1733 0
2186 -1767 1733 0
2186 2594 -786 0
2186 -2594 786 0
2186 1773 -493 0
2186 -1773 493 0
-2942 -1273 -1000 0
-2942 -1273 -3026 0
-2942 -1273 -1709 0
-2942 -1273 -919 0
-2942 -1273 3033 -3026 0
-2942 -1273 -3033 3026 0
-2942 -1273 1260 -919 0
-2942 -1273 -1260 919 0
-2942 -1273 2280 -1000 0
-2942 -1273 -2280 1000 0
-2942 -1273 1821 -1709 0
-2942 -1273 -1821 1709 0
-2942 1273 2895 0
-2942 1273 251 0
-2942 1273 14 0
-2942 1273 941 0
-2942 1273 3033 -251 0
-2942 1273 -3033 251 0
-2942 1273 1260 -941 0
-2942 1273 -1260 941 0
-2942 1273 2280 -2895 0
-2942 1273 -2280 2895 0
-2942 1273 1821 -14 0
-2942 1273 -1821 14 0
-2942 800 0
-2942 766 -3033 0
-2942 -766 3033 0
-2942 2489 -1260 0
-2942 -2489 1260 0
-2942 2213 -2280 0
-2942 -2213 2280 0
-2942 1534 -1821 0
-2942 -1534 1821 0
2942 -762 -1280 0
2942 -762 -501 0
2942 -762 2669 0
2942 -762 570 0
2942 -762 3021 -501 0
2942 -762 -3021 501 0
2942 -762 1459 -570 0
2942 -762 -1459 570 0
2942 -762 17 -1280 0
2942 -762 -17 1280 0
2942 -762 918 -2669 0
2942 -762 -918 2669 0
2942 762 436 0
2942 762 3118 0
2942 762 -1738 0
2942 762 -1207 0
2942 762 3021 -3118 0
2942 762 -3021 3118 0
2942 762 1459 -1207 0
2942 762 -1459 1207 0
2942 762 17 -436 0
2942 762 -17 436 0
2942 762 918 -1738 0
2942 762 -918 1738 0
2942 2482 0
2942 766 -3021 0
2942 -766 3021 0
2942 2489 -1459 0
2942 -2489 1459 0
2942 2213 -17 0
2942 -2213 17 0
2942 1534 -918 0
2942 -1534 918 0
-2211 -2099 -2090 0
-2211 -2099 -2471 0
-2211 -2099 -1240 0
-2211 -2099 -488 0
-2211 -2099 1378 -2471 0
-2211 -2099 -1378 2471 0
-2211 -2099 85 -488 0
-2211 -2099 -85 488 0
-2211 -2099 2981 -2090 0
-2211 -2099 -2981 2090 0
-2211 -2099 20 -1240 0
-2211 -2099 -20 1240 0
-2211 2099 1480 0
-2211 2099 1918 0
-2211 2099 2085 0
-2211 2099 1656 0
-2211 2099 1378 -1918 0
-2211 2099 -1378 1918 0
-2211 2099 85 -1656 0
-2211 2099 -85 1656 0
-2211 2099 2981 -1480 0
-2211 2099 -2981 1480 0
-2211 2099 20 -2085 0
-2211 2099 -20 2085 0
-2211 2611 0
-2211 1851 -1378 0
-2211 -1851 1378 0
-2211 1371 -85 0
-2211 -1371 85 0
-2211 766 -2981 0
-2211 -766 2981 0
-2211 1308 -20 0
-2211 -1308 20 0
2211 -1027 -2967 0
2211 -1027 -1963 0
2211 -1027 916 0
2211 -1027 238 0
2211 -1027 455 -1963 0
2211 -1027 -455 1963 0
2211 -1027 1614 -238 0
2211 -1027 -1614 238 0
2211 -1027 2257 -2967 0
2211 -1027 -2257 2967 0
2211 -1027 730 -916 0
2211 -1027 -730 916 0
2211 1027 1696 0
2211 1027 1462 0
2211 1027 -78 0
2211 1027 -2449 0
2211 1027 455 -1462 0
2211 1027 -455 1462 0
2211 1027 1614 -2449 0
2211 1027 -1614 2449 0
2211 1027 2257 -1696 0
2211 1027 -2257 1696 0
2211 1027 730 -78 0
2211 1027 -730 78 0
2211 2533 0
2211 1851 -455 0
2211 -1851 455 0
2211 1371 -1614 0
2211 -1371 1614 0
2211 766 -2257 0
2211 -766 2257 0
2211 1308 -730 0
2211 -1308 730 0
-1824 -156 -2293 0
-1824 -156 -1830 0
-1824 -156 -1835 0
-1824 -156 -1901 0
-1824 -156 2771 -1830 0
-1824 -156 -2771 1830 0
-1824 -156 99 -1901 0
-1824 -156 -99 1901 0
-1824 -156 854 -2293 0
-1824 -156 -854 2293 0
-1824 -156 981 -1835 0
-1824 -156 -981 1835 0
-1824 156 2112 0
-1824 156 447 0
-1824 156 994 0
-1824 156 2932 0
-1824 156 2771 -447 0
-1824 156 -2771 447 0
-1824 156 99 -2932 0
-1824 156 -99 2932 0
-1824 156 854 -2112 0
-1824 156 -854 2112 0
-1824 156 981 -994 0
-1824 156 -981 994 0
-1824 1038 0
-1824 397 -2771 0
-1824 -397 2771 0
-1824 2465 -99 0
-1824 -2465 99 0
-1824 1851 -854 0
-1824 -1851 854 0
-1824 3007 -981 0
-1824 -3007 981 0
1824 -2976 -2408 0
1824 -2976 -1786 0
1824 -2976 974 0
1824 -2976 1100 0
1824 -2976 607 -1786 0
1824 -2976 -607 1786 0
1824 -2976 1625 -1100 0
1824 -2976 -1625 1100 0
1824 -2976 2690 -2408 0
1824 -2976 -2690 2408 0
1824 -2976 623 -974 0
1824 -2976 -623 974 0
1824 2976 2860 0
1824 2976 1258 0
1824 2976 -2762 0
1824 2976 -2897 0
1824 2976 607 -1258 0
1824 2976 -607 1258 0
1824 2976 1625 -2897 0
1824 2976 -1625 2897 0
1824 2976 2690 -2860 0
1824 2976 -2690 2860 0
1824 2976 623 -2762 0
1824 2976 -623 2762 0
1824 68 0
1824 397 -607 0
1824 -397 607 0
1824 2465 -1625 0
1824 -2465 1625 0
1824 1851 -2690 0
1824 -1851 2690 0
1824 3007 -623 0
1824 -3007 623 0
-3141 -54 -1518 0
-3141 -54 -1505 0
-3141 -54 -791 0
-3141 -54 -2935 0
-3141 -54 842 -1505 0
-3141 -54 -842 1505 0
-3141 -54 2092 -2935 0
-3141 -54 -2092 2935 0
-3141 -54 2417 -1518 0
-3141 -54 -2417 1518 0
-3141 -54 2179 -791 0
-3141 -54 -2179 791 0
-3141 54 1544 0
-3141 54 2675 0
-3141 54 2947 0
-3141 54 2288 0
-3141 54 842 -2675 0
-3141 54 -842 2675 0
-3141 54 2092 -2288 0
-3141 54 -2092 2288 0
-3141 54 2417 -1544 0
-3141 54 -2417 1544 0
-3141 54 2179 -2947 0
-3141 54 -2179 2947 0
-3141 2151 0
-3141 2453 -842 0
-3141 -2453 842 0
-3141 256 -2092 0
-3141 -256 2092 0
-3141 397 -2417 0
-3141 -397 2417 0
-3141 1767 -2179 0
-3141 -1767 2179 0
3141 -3160 -1380 0
3141 -3160 -2688 0
3141 -3160 2587 0
3141 -3160 831 0
3141 -3160 1171 -2688 0
3141 -3160 -1171 2688 0
3141 -3160 849 -831 0
3141 -3160 -849 831 0
3141 -3160 2622 -1380 0
3141 -3160 -2622 1380 0
3141 -3160 1895 -2587 0
3141 -3160 -1895 2587 0
3141 3160 648 0
3141 3160 808 0
3141 3160 -805 0
3141 3160 -1355 0
3141 3160 1171 -808 0
3141 3160 -1171 808 0
3141 3160 849 -1355 0
3141 3160 -849 1355 0
3141 3160 2622 -648 0
3141 3160 -2622 648 0
3141 3160 1895 -805 0
3141 3160 -1895 805 0
3141 2600 0
3141 2453 -1171 0
3141 -2453 1171 0
3141 256 -849 0
3141 -256 849 0
3141 397 -2622 0
3141 -397 2622 0
3141 1767 -1895 0
3141 -1767 1895 0
-546 -2171 -625 0
-546 -2171 -643 0
-546 -2171 -2217 0
-546 -2171 -1266 0
-546 -2171 1749 -643 0
-546 -2171 -1749 643 0
-546 -2171 537 -1266 0
-546 -2171 -537 1266 0
-546 -2171 1440 -625 0
-546 -2171 -1440 625 0
-546 -2171 1141 -2217 0
-546 -2171 -1141 2217 0
-546 2171 98 0
-546 2171 2867 0
-546 2171 1001 0
-546 2171 763 0
-546 2171 1749 -2867 0
-546 2171 -1749 2867 0
-546 2171 537 -763 0
-546 2171 -537 763 0
-546 2171 1440 -98 0
-546 2171 -1440 98 0
-546 2171 1141 -1001 0
-546 2171 -1141 1001 0
-546 2644 0
-546 980 -1749 0
-546 -980 1749 0
-546 1249 -537 0
-546 -1249 537 0
-546 1321 -1440 0
-546 -1321 1440 0
-546 775 -1141 0
-546 -775 1141 0
546 -327 -2030 0
546 -327 -474 0
546 -327 3161 0
546 -327 3039 0
546 -327 944 -474 0
546 -327 -944 474 0
546 -327 556 -3039 0
546 -327 -556 3039 0
546 -327 843 -2030 0
546 -327 -843 2030 0
546 -327 2827 -3161 0
546 -327 -2827 3161 0
546 327 37 0
546 327 1788 0
546 327 -328 0
546 327 -1942 0
546 327 944 -1788 0
546 327 -944 1788 0
546 327 556 -1942 0
546 327 -556 1942 0
546 327 843 -37 0
546 327 -843 37 0
546 327 2827 -328 0
546 327 -2827 328 0
546 2461 0
546 980 -944 0
546 -980 944 0
546 1249 -556 0
546 -1249 556 0
546 1321 -843 0
546 -1321 843 0
546 775 -2827 0
546 -775 2827 0
-3054 -1403 -2203 0
-3054 -1403 -152 0
-3054 -1403 -1616 0
-3054 -1403 -595 0
-3054 -1403 1151 -152 0
-3054 -1403 -1151 152 0
-3054 -1403 2191 -595 0
-3054 -1403 -2191 595 0
-3054 -1403 2049 -2203 0
-3054 -1403 -2049 2203 0
-3054 -1403 862 -1616 0
-3054 -1403 -862 1616 0
-3054 1403 978 0
-3054 1403 1160 0
-3054 1403 2245 0
-3054 1403 684 0
-3054 1403 1151 -1160 0
-3054 1403 -1151 1160 0
-3054 1403 2191 -684 0
-3054 1403 -2191 684 0
-3054 1403 2049 -978 0
-3054 1403 -2049 978 0
-3054 1403 862 -2245 0
-3054 1403 -862 2245 0
-3054 2884 0
-3054 1007 -1151 0
-3054 -1007 1151 0
-3054 1372 -2191 0
-3054 -1372 2191 0
-3054 980 -2049 0
-3054 -980 2049 0
-3054 256 -862 0
-3054 -256 862 0
3054 -3020 -2391 0
3054 -3020 -1657 0
3054 -3020 2182 0
3054 -3020 2529 0
3054 -3020 1291 -1657 0
3054 -3020 -1291 1657 0
3054 -3020 2162 -2529 0
3054 -3020 -2162 2529 0
3054 -3020 380 -2391 0
3054 -3020 -380 2391 0
3054 -3020 1036 -2182 0
3054 -3020 -1036 2182 0
3054 3020 1957 0
3054 3020 1364 0
3054 3020 -2345 0
3054 3020 -2221 0
3054 3020 1291 -1364 0
3054 3020 -1291 1364 0
3054 3020 2162 -2221 0
3054 3020 -2162 2221 0
3054 3020 380 -1957 0
3054 3020 -380 1957 0
3054 3020 1036 -2345 0
3054 3020 -1036 2345 0
3054 1168 0
3054 1007 -1291 0
3054 -1007 1291 0
3054 1372 -2162 0
3054 -1372 2162 0
3054 980 -380 0
3054 -980 380 0
3054 256 -1036 0
3054 -256 1036 0
-386 -2565 -313 0
-386 -2565 -1844 0
-386 -2565 -396 0
-386 -2565 -1769 0
-386 -2565 2263 -1844 0
-386 -2565 -2263 1844 0
-386 -2565 3169 -1769 0
-386 -2565 -3169 1769 0
-386 -2565 1599 -313 0
-386 -2565 -1599 313 0
-386 -2565 259 -396 0
-386 -2565 -259 396 0
-386 2565 1833 0
-386 2565 2727 0
-386 2565 2270 0
-386 2565 2995 0
-386 2565 2263 -2727 0
-386 2565 -2263 2727 0
-386 2565 3169 -2995 0
-386 2565 -3169 2995 0
-386 2565 1599 -1833 0
-386 2565 -1599 1833 0
-386 2565 259 -2270 0
-386 2565 -259 2270 0
-386 2925 0
-386 2634 -2263 0
-386 -2634 2263 0
-386 2412 -3169 0
-386 -2412 3169 0
-386 821 -1599 0
-386 -821 1599 0
-386 1570 -259 0
-386 -1570 259 0
386 -3057 -67 0
386 -3057 -1487 0
386 -3057 1990 0
386 -3057 3078 0
386 -3057 965 -1487 0
386 -3057 -965 1487 0
386 -3057 2955 -3078 0
386 -3057 -2955 3078 0
386 -3057 2521 -67 0
386 -3057 -2521 67 0
386 -3057 168 -1990 0
386 -3057 -168 1990 0
386 3057 1376 0
386 3057 2610 0
386 3057 -2639 0
386 3057 -30 0
386 3057 965 -2610 0
386 3057 -965 2610 0
386 3057 2955 -30 0
386 3057 -2955 30 0
386 3057 2521 -1376 0
386 3057 -2521 1376 0
386 3057 168 -2639 0
386 3057 -168 2639 0
386 1528 0
386 2634 -965 0
386 -2634 965 0
386 2412 -2955 0
386 -2412 2955 0
386 821 -2521 0
386 -821 2521 0
386 1570 -168 0
386 -1570 168 0
-3015 -2865 -3081 0
-3015 -2865 -1849 0
-3015 -2865 -2539 0
-3015 -2865 -3019 0
-3015 -2865 2072 -1849 0
-3015 -2865 -2072 1849 0
-3015 -2865 617 -3019 0
-3015 -2865 -617 3019 0
-3015 -2865 960 -3081 0
-3015 -2865 -960 3081 0
-3015 -2865 1020 -2539 0
-3015 -2865 -1020 2539 0
-3015 2865 2279 0
-3015 2865 2869 0
-3015 2865 1981 0
-3015 2865 2379 0
-3015 2865 2072 -2869 0
-3015 2865 -2072 2869 0
-3015 2865 617 -2379 0
-3015 2865 -617 2379 0
-3015 2865 960 -2279 0
-3015 2865 -960 2279 0
-3015 2865 1020 -1981 0
-3015 2865 -1020 1981 0
-3015 1228 0
-3015 3006 -2072 0
-3015 -3006 2072 0
-3015 1757 -617 0
-3015 -1757 617 0
-3015 2634 -960 0
-3015 -2634 960 0
-3015 1898 -1020 0
-3015 -1898 1020 0
3015 -1158 -237 0
3015 -1158 -2522 0
3015 -1158 2060 0
3015 -1158 2547 0
3015 -1158 1485 -2522 0
3015 -1158 -1485 2522 0
3015 -1158 2238 -2547 0
3015 -1158 -2238 2547 0
3015 -1158 1124 -237 0
3015 -1158 -1124 237 0
3015 -1158 2546 -2060 0
3015 -1158 -2546 2060 0
3015 1158 2642 0
3015 1158 2364 0
3015 1158 -3188 0
3015 1158 -2010 0
3015 1158 1485 -2364 0
3015 1158 -1485 2364 0
3015 1158 2238 -2010 0
3015 1158 -2238 2010 0
3015 1158 1124 -2642 0
3015 1158 -1124 2642 0
3015 1158 2546 -3188 0
3015 1158 -2546 3188 0
3015 2749 0
3015 3006 -1485 0
3015 -3006 1485 0
3015 1757 -2238 0
3015 -1757 2238 0
3015 2634 -1124 0
3015 -2634 1124 0
3015 1898 -2546 0
3015 -1898 2546 0
-895 -2763 -2617 0
-895 -2763 -2371 0
-895 -2763 -1091 0
-895 -2763 -2581 0
-895 -2763 1327 -2371 0
-895 -2763 -1327 2371 0
-895 -2763 2776 -2581 0
-895 -2763 -2776 2581 0
-895 -2763 1011 -2617 0
-895 -2763 -1011 2617 0
-895 -2763 430 -1091 0
-895 -2763 -430 1091 0
-895 2763 2599 0
-895 2763 96 0
-895 2763 1572 0
-895 2763 298 0
-895 2763 1327 -96 0
-895 2763 -1327 96 0
-895 2763 2776 -298 0
-895 2763 -2776 298 0
-895 2763 1011 -2599 0
-895 2763 -1011 2599 0
-895 2763 430 -1572 0
-895 2763 -430 1572 0
-895 661 0
-895 754 -1327 0
-895 -754 1327 0
-895 1905 -2776 0
-895 -1905 2776 0
-895 3006 -1011 0
-895 -3006 1011 0
-895 1249 -430 0
-895 -1249 430 0
895 -185 -2836 0
895 -185 -1423 0
895 -185 2890 0
895 -185 1553 0
895 -185 1247 -1423 0
895 -185 -1247 1423 0
895 -185 2537 -1553 0
895 -185 -2537 1553 0
895 -185 2702 -2836 0
895 -185 -2702 2836 0
895 -185 1723 -2890 0
895 -185 -1723 2890 0
895 185 2790 0
895 185 533 0
895 185 -867 0
895 185 -1268 0
895 185 1247 -533 0
895 185 -1247 533 0
895 185 2537 -1268 0
895 185 -2537 1268 0
895 185 2702 -2790 0
895 185 -2702 2790 0
895 185 1723 -867 0
895 185 -1723 867 0
895 1391 0
895 754 -1247 0
895 -754 1247 0
895 1905 -2537 0
895 -1905 2537 0
895 3006 -2702 0
895 -3006 2702 0
895 1249 -1723 0
895 -1249 1723 0
-2575 -189 -471 0
-2575 -189 -1564 0
-2575 -189 -683 0
-2575 -189 -448 0
-2575 -189 813 -1564 0
-2575 -189 -813 1564 0
-2575 -189 1921 -448 0
-2575 -189 -1921 448 0
-2575 -189 1587 -471 0
-2575 -189 -1587 471 0
-2575 -189 1087 -683 0
-2575 -189 -1087 683 0
-2575 189 2423 0
-2575 189 514 0
-2575 189 1157 0
-2575 189 282 0
-2575 189 813 -514 0
-2575 189 -813 514 0
-2575 189 1921 -282 0
-2575 189 -1921 282 0
-2575 189 1587 -2423 0
-2575 189 -1587 2423 0
-2575 189 1087 -1157 0
-2575 189 -1087 1157 0
-2575 1278 0
-2575 2834 -813 0
-2575 -2834 813 0
-2575 286 -1921 0
-2575 -286 1921 0
-2575 754 -1587 0
-2575 -754 1587 0
-2575 1510 -1087 0
-2575 -1510 1087 0
2575 -908 -2048 0
2575 -908 -1279 0
2575 -908 863 0
2575 -908 2730 0
2575 -908 408 -1279 0
2575 -908 -408 1279 0
2575 -908 880 -2730 0
2575 -908 -880 2730 0
2575 -908 1890 -2048 0
2575 -908 -1890 2048 0
2575 -908 2820 -863 0
2575 -908 -2820 863 0
2575 908 2053 0
2575 908 364 0
2575 908 -986 0
2575 908 -697 0
2575 908 408 -364 0
2575 908 -408 364 0
2575 908 880 -697 0
2575 908 -880 697 0
2575 908 1890 -2053 0
2575 908 -1890 2053 0
2575 908 2820 -986 0
2575 908 -2820 986 0
2575 2452 0
2575 2834 -408 0
2575 -2834 408 0
2575 286 -880 0
2575 -286 880 0
2575 754 -1890 0
2575 -754 1890 0
2575 1510 -2820 0
2575 -1510 2820 0
-2235 -1803 -2180 0
-2235 -1803 -2832 0
-2235 -1803 -2308 0
-2235 -1803 -107 0
-2235 -1803 667 -2832 0
-2235 -1803 -667 2832 0
-2235 -1803 3167 -107 0
-2235 -1803 -3167 107 0
-2235 -1803 1822 -2180 0
-2235 -1803 -1822 2180 0
-2235 -1803 1344 -2308 0
-2235 -1803 -1344 2308 0
-2235 1803 2929 0
-2235 1803 694 0
-2235 1803 1226 0
-2235 1803 913 0
-2235 1803 667 -694 0
-2235 1803 -667 694 0
-2235 1803 3167 -913 0
-2235 1803 -3167 913 0
-2235 1803 1822 -2929 0
-2235 1803 -1822 2929 0
-2235 1803 1344 -1226 0
-2235 1803 -1344 1226 0
-2235 356 0
-2235 2582 -667 0
-2235 -2582 667 0
-2235 2252 -3167 0
-2235 -2252 3167 0
-2235 746 -1822 0
-2235 -746 1822 0
-2235 1845 -1344 0
-2235 -1845 1344 0
2235 -1419 -1454 0
2235 -1419 -2393 0
2235 -1419 2958 0
2235 -1419 2898 0
2235 -1419 1792 -2393 0
2235 -1419 -1792 2393 0
2235 -1419 2078 -2898 0
2235 -1419 -2078 2898 0
2235 -1419 1358 -1454 0
2235 -1419 -1358 1454 0
2235 -1419 1486 -2958 0
2235 -1419 -1486 2958 0
2235 1419 1878 0
2235 1419 1879 0
2235 1419 -949 0
2235 1419 -1791 0
2235 1419 1792 -1879 0
2235 1419 -1792 1879 0
2235 1419 2078 -1791 0
2235 1419 -2078 1791 0
2235 1419 1358 -1878 0
2235 1419 -1358 1878 0
2235 1419 1486 -949 0
2235 1419 -1486 949 0
2235 1764 0
2235 2582 -1792 0
2235 -2582 1792 0
2235 2252 -2078 0
2235 -2252 2078 0
2235 746 -1358 0
2235 -746 1358 0
2235 1845 -1486 0
2235 -1845 1486 0
-1094 -2588 -2656 0
-1094 -2588 -2353 0
-1094 -2588 -2840 0
-1094 -2588 -3071 0
-1094 -2588 3097 -2353 0
-1094 -2588 -3097 2353 0
-1094 -2588 2841 -3071 0
-1094 -2588 -2841 3071 0
-1094 -2588 1586 -2656 0
-1094 -2588 -1586 2656 0
-1094 -2588 839 -2840 0
-1094 -2588 -839 2840 0
-1094 2588 2243 0
-1094 2588 6 0
-1094 2588 690 0
-1094 2588 360 0
-1094 2588 3097 -6 0
-1094 2588 -3097 6 0
-1094 2588 2841 -360 0
-1094 2588 -2841 360 0
-1094 2588 1586 -2243 0
-1094 2588 -1586 2243 0
-1094 2588 839 -690 0
-1094 2588 -839 690 0
-1094 1568 0
-1094 2572 -3097 0
-1094 -2572 3097 0
-1094 1418 -2841 0
-1094 -1418 2841 0
-1094 2582 -1586 0
-1094 -2582 1586 0
-1094 1744 -839 0
-1094 -1744 839 0
1094 -725 -1922 0
1094 -725 -2913 0
1094 -725 1385 0
1094 -725 2050 0
1094 -725 2800 -2913 0
1094 -725 -2800 2913 0
1094 -725 1453 -2050 0
1094 -725 -1453 2050 0
1094 -725 778 -1922 0
1094 -725 -778 1922 0
1094 -725 2556 -1385 0
1094 -725 -2556 1385 0
1094 725 2276 0
1094 725 2679 0
1094 725 -1595 0
1094 725 -1605 0
1094 725 2800 -2679 0
1094 725 -2800 2679 0
1094 725 1453 -1605 0
1094 725 -1453 1605 0
1094 725 778 -2276 0
1094 725 -778 2276 0
1094 725 2556 -1595 0
1094 725 -2556 1595 0
1094 306 0
1094 2572 -2800 0
1094 -2572 2800 0
1094 1418 -1453 0
1094 -1418 1453 0
1094 2582 -778 0
1094 -2582 778 0
1094 1744 -2556 0
1094 -1744 2556 0
-3113 -548 -113 0
-3113 -548 -2992 0
-3113 -548 -494 0
-3113 -548 -618 0
-3113 -548 2782 -2992 0
-3113 -548 -2782 2992 0
-3113 -548 3045 -618 0
-3113 -548 -3045 618 0
-3113 -548 2214 -113 0
-3113 -548 -2214 113 0
-3113 -548 1714 -494 0
-3113 -548 -1714 494 0
-3113 548 1445 0
-3113 548 1797 0
-3113 548 2619 0
-3113 548 2758 0
-3113 548 2782 -1797 0
-3113 548 -2782 1797 0
-3113 548 3045 -2758 0
-3113 548 -3045 2758 0
-3113 548 2214 -1445 0
-3113 548 -2214 1445 0
-3113 548 1714 -2619 0
-3113 548 -1714 2619 0
-3113 841 0
-3113 2302 -2782 0
-3113 -2302 2782 0
-3113 1293 -3045 0
-3113 -1293 3045 0
-3113 2572 -2214 0
-3113 -2572 2214 0
-3113 1372 -1714 0
-3113 -1372 1714 0
3113 -1 -1458 0
3113 -1 -3013 0
3113 -1 1730 0
3113 -1 2752 0
3113 -1 3101 -3013 0
3113 -1 -3101 3013 0
3113 -1 2738 -2752 0
3113 -1 -2738 2752 0
3113 -1 2340 -1458 0
3113 -1 -2340 1458 0
3113 -1 1263 -1730 0
3113 -1 -1263 1730 0
3113 1 420 0
3113 1 513 0
3113 1 -2664 0
3113 1 -3090 0
3113 1 3101 -513 0
3113 1 -3101 513 0
3113 1 2738 -3090 0
3113 1 -2738 3090 0
3113 1 2340 -420 0
3113 1 -2340 420 0
3113 1 1263 -2664 0
3113 1 -1263 2664 0
3113 2036 0
3113 2302 -3101 0
3113 -2302 3101 0
3113 1293 -2738 0
3113 -1293 2738 0
3113 2572 -2340 0
3113 -2572 2340 0
3113 1372 -1263 0
3113 -1372 1263 0
-898 -832 -1136 0
-898 -832 -1498 0
-898 -832 -1333 0
-898 -832 -180 0
-898 -832 291 -1498 0
-898 -832 -291 1498 0
-898 -832 2450 -180 0
-898 -832 -2450 180 0
-898 -832 3143 -1136 0
-898 -832 -3143 1136 0
-898 -832 1600 -1333 0
-898 -832 -1600 1333 0
-898 832 472 0
-898 832 2159 0
-898 832 2696 0
-898 832 2314 0
-898 832 291 -2159 0
-898 832 -291 2159 0
-898 832 2450 -2314 0
-898 832 -2450 2314 0
-898 832 3143 -472 0
-898 832 -3143 472 0
-898 832 1600 -2696 0
-898 832 -1600 2696 0
-898 1493 0
-898 2623 -291 0
-898 -2623 291 0
-898 1669 -2450 0
-898 -1669 2450 0
-898 2412 -3143 0
-898 -2412 3143 0
-898 469 -1600 0
-898 -469 1600 0
898 -2239 -1787 0
898 -2239 -1067 0
898 -2239 1936 0
898 -2239 1947 0
898 -2239 475 -1067 0
898 -2239 -475 1067 0
898 -2239 591 -1947 0
898 -2239 -591 1947 0
898 -2239 2666 -1787 0
898 -2239 -2666 1787 0
898 -2239 2916 -1936 0
898 -2239 -2916 1936 0
898 2239 2268 0
898 2239 284 0
898 2239 -716 0
898 2239 -2383 0
898 2239 475 -284 0
898 2239 -475 284 0
898 2239 591 -2383 0
898 2239 -591 2383 0
898 2239 2666 -2268 0
898 2239 -2666 2268 0
898 2239 2916 -716 0
898 2239 -2916 716 0
898 2681 0
898 2623 -475 0
898 -2623 475 0
898 1669 -591 0
898 -1669 591 0
898 2412 -2666 0
898 -2412 2666 0
898 469 -2916 0
898 -469 2916 0
-1958 -3087 -2172 0
-1958 -3087 -2614 0
-1958 -3087 -1643 0
-1958 -3087 -2994 0
-1958 -3087 857 -2614 0
-1958 -3087 -857 2614 0
-1958 -3087 1531 -2994 0
-1958 -3087 -1531 2994 0
-1958 -3087 72 -2172 0
-1958 -3087 -72 2172 0
-1958 -3087 2641 -1643 0
-1958 -3087 -2641 1643 0
-1958 3087 1137 0
-1958 3087 2076 0
-1958 3087 2354 0
-1958 3087 929 0
-1958 3087 857 -2076 0
-1958 3087 -857 2076 0
-1958 3087 1531 -929 0
-1958 3087 -1531 929 0
-1958 3087 72 -1137 0
-1958 3087 -72 1137 0
-1958 3087 2641 -2354 0
-1958 3087 -2641 2354 0
-1958 632 0
-1958 1925 -857 0
-1958 -1925 857 0
-1958 1313 -1531 0
-1958 -1313 1531 0
-1958 2623 -72 0
-1958 -2623 72 0
-1958 1691 -2641 0
-1958 -1691 2641 0
1958 -550 -1529 0
1958 -550 -691 0
1958 -550 2648 0
1958 -550 2590 0
1958 -550 1708 -691 0
1958 -550 -1708 691 0
1958 -550 983 -2590 0
1958 -550 -983 2590 0
1958 -550 1965 -1529 0
1958 -550 -1965 1529 0
1958 -550 1245 -2648 0
1958 -550 -1245 2648 0
1958 550 3050 0
1958 550 1635 0
1958 550 -2671 0
1958 550 -1687 0
1958 550 1708 -1635 0
1958 550 -1708 1635 0
1958 550 983 -1687 0
1958 550 -983 1687 0
1958 550 1965 -3050 0
1958 550 -1965 3050 0
1958 550 1245 -2671 0
1958 550 -1245 2671 0
1958 36 0
1958 1925 -1708 0
1958 -1925 1708 0
1958 1313 -983 0
1958 -1313 983 0
1958 2623 -1965 0
1958 -2623 1965 0
1958 1691 -1245 0
1958 -1691 1245 0
-921 -769 -402 0
-921 -769 -506 0
-921 -769 -2858 0
-921 -769 -955 0
-921 -769 87 -506 0
-921 -769 -87 506 0
-921 -769 1166 -955 0
-921 -769 -1166 955 0
-921 -769 605 -402 0
-921 -769 -605 402 0
-921 -769 1119 -2858 0
-921 -769 -1119 2858 0
-921 769 1135 0
-921 769 97 0
-921 769 1681 0
-921 769 1838 0
-921 769 87 -97 0
-921 769 -87 97 0
-921 769 1166 -1838 0
-921 769 -1166 1838 0
-921 769 605 -1135 0
-921 769 -605 1135 0
-921 769 1119 -1681 0
-921 769 -1119 1681 0
-921 1502 0
-921 1150 -87 0
-921 -1150 87 0
-921 1394 -1166 0
-921 -1394 1166 0
-921 1925 -605 0
-921 -1925 605 0
-921 748 -1119 0
-921 -748 1119 0
921 -598 -459 0
921 -598 -2006 0
921 -598 302 0
921 -598 2973 0
921 -598 1618 -2006 0
921 -598 -1618 2006 0
921 -598 2454 -2973 0
921 -598 -2454 2973 0
921 -598 1652 -459 0
921 -598 -1652 459 0
921 -598 1535 -302 0
921 -598 -1535 302 0
921 598 2692 0
921 598 3162 0
921 598 -2789 0
921 598 -131 0
921 598 1618 -3162 0
921 598 -1618 3162 0
921 598 2454 -131 0
921 598 -2454 131 0
921 598 1652 -2692 0
921 598 -1652 2692 0
921 598 1535 -2789 0
921 598 -1535 2789 0
921 2531 0
921 1150 -1618 0
921 -1150 1618 0
921 1394 -2454 0
921 -1394 2454 0
921 1925 -1652 0
921 -1925 1652 0
921 748 -1535 0
921 -748 1535 0
-679 -2457 -1153 0
-679 -2457 -2989 0
-679 -2457 -460 0
-679 -2457 -1646 0
-679 -2457 2480 -2989 0
-679 -2457 -2480 2989 0
-679 -2457 1156 -1646 0
-679 -2457 -1156 1646 0
-679 -2457 1236 -1153 0
-679 -2457 -1236 1153 0
-679 -2457 1966 -460 0
-679 -2457 -1966 460 0
-679 2457 3154 0
-679 2457 2598 0
-679 2457 2390 0
-679 2457 2080 0
-679 2457 2480 -2598 0
-679 2457 -2480 2598 0
-679 2457 1156 -2080 0
-679 2457 -1156 2080 0
-679 2457 1236 -3154 0
-679 2457 -1236 3154 0
-679 2457 1966 -2390 0
-679 2457 -1966 2390 0
-679 1316 0
-679 1285 -2480 0
-679 -1285 2480 0
-679 2930 -1156 0
-679 -2930 1156 0
-679 1150 -1236 0
-679 -1150 1236 0
-679 1905 -1966 0
-679 -1905 1966 0
679 -2663 -2735 0
679 -2663 -173 0
679 -2663 1041 0
679 -2663 2103 0
679 -2663 2580 -173 0
679 -2663 -2580 173 0
679 -2663 1779 -2103 0
679 -2663 -1779 2103 0
679 -2663 731 -2735 0
679 -2663 -731 2735 0
679 -2663 89 -1041 0
679 -2663 -89 1041 0
679 2663 2988 0
679 2663 583 0
679 2663 -737 0
679 2663 -206 0
679 2663 2580 -583 0
679 2663 -2580 583 0
679 2663 1779 -206 0
679 2663 -1779 206 0
679 2663 731 -2988 0
679 2663 -731 2988 0
679 2663 89 -737 0
679 2663 -89 737 0
679 991 0
679 1285 -2580 0
679 -1285 2580 0
679 2930 -1779 0
679 -2930 1779 0
679 1150 -731 0
679 -1150 731 0
679 1905 -89 0
679 -1905 89 0
-2120 -1850 -597 0
-2120 -1850 -1296 0
-2120 -1850 -2170 0
-2120 -1850 -1147 0
-2120 -1850 2342 -1296 0
-2120 -1850 -2342 1296 0
-2120 -1850 1660 -1147 0
-2120 -1850 -1660 1147 0
-2120 -1850 2168 -597 0
-2120 -1850 -2168 597 0
-2120 -1850 2983 -2170 0
-2120 -1850 -2983 2170 0
-2120 1850 354 0
-2120 1850 3157 0
-2120 1850 1736 0
-2120 1850 93 0
-2120 1850 2342 -3157 0
-2120 1850 -2342 3157 0
-2120 1850 1660 -93 0
-2120 1850 -1660 93 0
-2120 1850 2168 -354 0
-2120 1850 -2168 354 0
-2120 1850 2983 -1736 0
-2120 1850 -2983 1736 0
-2120 1447 0
-2120 816 -2342 0
-2120 -816 2342 0
-2120 62 -1660 0
-2120 -62 1660 0
-2120 1745 -2168 0
-2120 -1745 2168 0
-2120 1418 -2983 0
-2120 -1418 2983 0
2120 -3072 -1337 0
2120 -3072 -2872 0
2120 -3072 2260 0
2120 -3072 2271 0
2120 -3072 572 -2872 0
2120 -3072 -572 2872 0
2120 -3072 265 -2271 0
2120 -3072 -265 2271 0
2120 -3072 2603 -1337 0
2120 -3072 -2603 1337 0
2120 -3072 2065 -2260 0
2120 -3072 -2065 2260 0
2120 3072 1332 0
2120 3072 2629 0
2120 3072 -1751 0
2120 3072 -2697 0
2120 3072 572 -2629 0
2120 3072 -572 2629 0
2120 3072 265 -2697 0
2120 3072 -265 2697 0
2120 3072 2603 -1332 0
2120 3072 -2603 1332 0
2120 3072 2065 -1751 0
2120 3072 -2065 1751 0
2120 1695 0
2120 816 -572 0
2120 -816 572 0
2120 62 -265 0
2120 -62 265 0
2120 1745 -2603 0
2120 -1745 2603 0
2120 1418 -2065 0
2120 -1418 2065 0
-1167 -230 -3029 0
-1167 -230 -824 0
-1167 -230 -1051 0
-1167 -230 -424 0
-1167 -230 1491 -824 0
-1167 -230 -1491 824 0
-1167 -230 1888 -424 0
-1167 -230 -1888 424 0
-1167 -230 2491 -3029 0
-1167 -230 -2491 3029 0
-1167 -230 1883 -1051 0
-1167 -230 -1883 1051 0
-1167 230 1892 0
-1167 230 1546 0
-1167 230 2294 0
-1167 230 714 0
-1167 230 1491 -1546 0
-1167 230 -1491 1546 0
-1167 230 1888 -714 0
-1167 230 -1888 714 0
-1167 230 2491 -1892 0
-1167 230 -2491 1892 0
-1167 230 1883 -2294 0
-1167 230 -1883 2294 0
-1167 2523 0
-1167 1436 -1491 0
-1167 -1436 1491 0
-1167 726 -1888 0
-1167 -726 1888 0
-1167 816 -2491 0
-1167 -816 2491 0
-1167 1848 -1883 0
-1167 -1848 1883 0
1167 -689 -2154 0
1167 -689 -2846 0
1167 -689 1514 0
1167 -689 2150 0
1167 -689 2661 -2846 0
1167 -689 -2661 2846 0
1167 -689 2814 -2150 0
1167 -689 -2814 2150 0
1167 -689 2317 -2154 0
1167 -689 -2317 2154 0
1167 -689 2357 -1514 0
1167 -689 -2357 1514 0
1167 689 314 0
1167 689 3185 0
1167 689 -1024 0
1167 689 -1362 0
1167 689 2661 -3185 0
1167 689 -2661 3185 0
1167 689 2814 -1362 0
1167 689 -2814 1362 0
1167 689 2317 -314 0
1167 689 -2317 314 0
1167 689 2357 -1024 0
1167 689 -2357 1024 0
1167 633 0
1167 1436 -2661 0
1167 -1436 2661 0
1167 726 -2814 0
1167 -726 2814 0
1167 816 -2317 0
1167 -816 2317 0
1167 1848 -2357 0
1167 -1848 2357 0
-1409 -1172 -1223 0
-1409 -1172 -1343 0
-1409 -1172 -1377 0
-1409 -1172 -1865 0
-1409 -1172 3094 -1343 0
-1409 -1172 -3094 1343 0
-1409 -1172 2934 -1865 0
-1409 -1172 -2934 1865 0
-1409 -1172 1133 -1223 0
-1409 -1172 -1133 1223 0
-1409 -1172 664 -1377 0
-1409 -1172 -664 1377 0
-1409 1172 2234 0
-1409 1172 2494 0
-1409 1172 2347 0
-1409 1172 790 0
-1409 1172 3094 -2494 0
-1409 1172 -3094 2494 0
-1409 1172 2934 -790 0
-1409 1172 -2934 790 0
-1409 1172 1133 -2234 0
-1409 1172 -1133 2234 0
-1409 1172 664 -2347 0
-1409 1172 -664 2347 0
-1409 2769 0
-1409 2318 -3094 0
-1409 -2318 3094 0
-1409 650 -2934 0
-1409 -650 2934 0
-1409 1053 -1133 0
-1409 -1053 1133 0
-1409 848 -664 0
-1409 -848 664 0
1409 -3053 -2555 0
1409 -3053 -2627 0
1409 -3053 1018 0
1409 -3053 574 0
1409 -3053 193 -2627 0
1409 -3053 -193 2627 0
1409 -3053 622 -574 0
1409 -3053 -622 574 0
1409 -3053 2312 -2555 0
1409 -3053 -2312 2555 0
1409 -3053 211 -1018 0
1409 -3053 -211 1018 0
1409 3053 1639 0
1409 3053 658 0
1409 3053 -2058 0
1409 3053 -73 0
1409 3053 193 -658 0
1409 3053 -193 658 0
1409 3053 622 -73 0
1409 3053 -622 73 0
1409 3053 2312 -1639 0
1409 3053 -2312 1639 0
1409 3053 211 -2058 0
1409 3053 -211 2058 0
1409 1726 0
1409 2318 -193 0
1409 -2318 193 0
1409 650 -622 0
1409 -650 622 0
1409 1053 -2312 0
1409 -1053 2312 0
1409 848 -211 0
1409 -848 211 0
-1193 -2057 -2210 0
-1193 -2057 -2149 0
-1193 -2057 -869 0
-1193 -2057 -1222 0
-1193 -2057 3005 -2149 0
-1193 -2057 -3005 2149 0
-1193 -2057 3186 -1222 0
-1193 -2057 -3186 1222 0
-1193 -2057 1938 -2210 0
-1193 -2057 -1938 2210 0
-1193 -2057 1354 -869 0
-1193 -2057 -1354 869 0
-1193 2057 1675 0
-1193 2057 400 0
-1193 2057 2098 0
-1193 2057 2328 0
-1193 2057 3005 -400 0
-1193 2057 -3005 400 0
-1193 2057 3186 -2328 0
-1193 2057 -3186 2328 0
-1193 2057 1938 -1675 0
-1193 2057 -1938 1675 0
-1193 2057 1354 -2098 0
-1193 2057 -1354 2098 0
-1193 3134 0
-1193 2717 -3005 0
-1193 -2717 3005 0
-1193 906 -3186 0
-1193 -906 3186 0
-1193 2489 -1938 0
-1193 -2489 1938 0
-1193 1663 -1354 0
-1193 -1663 1354 0
1193 -243 -668 0
1193 -243 -2009 0
1193 -243 988 0
1193 -243 2796 0
1193 -243 3061 -2009 0
1193 -243 -3061 2009 0
1193 -243 704 -2796 0
1193 -243 -704 2796 0
1193 -243 2385 -668 0
1193 -243 -2385 668 0
1193 -243 2467 -988 0
1193 -243 -2467 988 0
1193 243 500 0
1193 243 1295 0
1193 243 -1049 0
1193 243 -1026 0
1193 243 3061 -1295 0
1193 243 -3061 1295 0
1193 243 704 -1026 0
1193 243 -704 1026 0
1193 243 2385 -500 0
1193 243 -2385 500 0
1193 243 2467 -1049 0
1193 243 -2467 1049 0
1193 706 0
1193 2717 -3061 0
1193 -2717 3061 0
1193 906 -704 0
1193 -906 704 0
1193 2489 -2385 0
1193 -2489 2385 0
1193 1663 -2467 0
1193 -1663 2467 0
-2122 -1882 -507 0
-2122 -1882 -1113 0
-2122 -1882 -3182 0
-2122 -1882 -2608 0
-2122 -1882 3152 -1113 0
-2122 -1882 -3152 1113 0
-2122 -1882 2831 -2608 0
-2122 -1882 -2831 2608 0
-2122 -1882 2646 -507 0
-2122 -1882 -2646 507 0
-2122 -1882 520 -3182 0
-2122 -1882 -520 3182 0
-2122 1882 285 0
-2122 1882 222 0
-2122 1882 3177 0
-2122 1882 752 0
-2122 1882 3152 -222 0
-2122 1882 -3152 222 0
-2122 1882 2831 -752 0
-2122 1882 -2831 752 0
-2122 1882 2646 -285 0
-2122 1882 -2646 285 0
-2122 1882 520 -3177 0
-2122 1882 -520 3177 0
-2122 497 0
-2122 2900 -3152 0
-2122 -2900 3152 0
-2122 2982 -2831 0
-2122 -2982 2831 0
-2122 2717 -2646 0
-2122 -2717 2646 0
-2122 1954 -520 0
-2122 -1954 520 0
2122 -1818 -1727 0
2122 -1818 -1784 0
2122 -1818 2378 0
2122 -1818 1819 0
2122 -1818 2553 -1784 0
2122 -1818 -2553 1784 0
2122 -1818 2486 -1819 0
2122 -1818 -2486 1819 0
2122 -1818 545 -1727 0
2122 -1818 -545 1727 0
2122 -1818 439 -2378 0
2122 -1818 -439 2378 0
2122 1818 1406 0
2122 1818 672 0
2122 1818 -2469 0
2122 1818 -997 0
2122 1818 2553 -672 0
2122 1818 -2553 672 0
2122 1818 2486 -997 0
2122 1818 -2486 997 0
2122 1818 545 -1406 0
2122 1818 -545 1406 0
2122 1818 439 -2469 0
2122 1818 -439 2469 0
2122 1633 0
2122 2900 -2553 0
2122 -2900 2553 0
2122 2982 -2486 0
2122 -2982 2486 0
2122 2717 -545 0
2122 -2717 545 0
2122 1954 -439 0
2122 -1954 439 0
-3068 -629 -2750 0
-3068 -629 -3064 0
-3068 -629 -405 0
-3068 -629 -418 0
-3068 -629 2319 -3064 0
-3068 -629 -2319 3064 0
-3068 -629 2526 -418 0
-3068 -629 -2526 418 0
-3068 -629 1025 -2750 0
-3068 -629 -1025 2750 0
-3068 -629 1582 -405 0
-3068 -629 -1582 405 0
-3068 629 281 0
-3068 629 299 0
-3068 629 1621 0
-3068 629 2851 0
-3068 629 2319 -299 0
-3068 629 -2319 299 0
-3068 629 2526 -2851 0
-3068 629 -2526 2851 0
-3068 629 1025 -281 0
-3068 629 -1025 281 0
-3068 629 1582 -1621 0
-3068 629 -1582 1621 0
-3068 586 0
-3068 2686 -2319 0
-3068 -2686 2319 0
-3068 984 -2526 0
-3068 -984 2526 0
-3068 2900 -1025 0
-3068 -2900 1025 0
-3068 62 -1582 0
-3068 -62 1582 0
3068 -309 -3080 0
3068 -309 -2107 0
3068 -309 2448 0
3068 -309 2701 0
3068 -309 3052 -2107 0
3068 -309 -3052 2107 0
3068 -309 1250 -2701 0
3068 -309 -1250 2701 0
3068 -309 1393 -3080 0
3068 -309 -1393 3080 0
3068 -309 2091 -2448 0
3068 -309 -2091 2448 0
3068 309 804 0
3068 309 979 0
3068 309 -2842 0
3068 309 -1298 0
3068 309 3052 -979 0
3068 309 -3052 979 0
3068 309 1250 -1298 0
3068 309 -1250 1298 0
3068 309 1393 -804 0
3068 309 -1393 804 0
3068 309 2091 -2842 0
3068 309 -2091 2842 0
3068 65 0
3068 2686 -3052 0
3068 -2686 3052 0
3068 984 -1250 0
3068 -984 1250 0
3068 2900 -1393 0
3068 -2900 1393 0
3068 62 -2091 0
3068 -62 2091 0
-1473 -146 -2837 0
-1473 -146 -1880 0
-1473 -146 -2259 0
-1473 -146 -1006 0
-1473 -146 2819 -1880 0
-1473 -146 -2819 1880 0
-1473 -146 837 -1006 0
-1473 -146 -837 1006 0
-1473 -146 495 -2837 0
-1473 -146 -495 2837 0
-1473 -146 2817 -2259 0
-1473 -146 -2817 2259 0
-1473 146 1111 0
-1473 146 543 0
-1473 146 798 0
-1473 146 1130 0
-1473 146 2819 -543 0
-1473 146 -2819 543 0
-1473 146 837 -1130 0
-1473 146 -837 1130 0
-1473 146 495 -1111 0
-1473 146 -495 1111 0
-1473 146 2817 -798 0
-1473 146 -2817 798 0
-1473 2436 0
-1473 1361 -2819 0
-1473 -1361 2819 0
-1473 890 -837 0
-1473 -890 837 0
-1473 2169 -495 0
-1473 -2169 495 0
-1473 378 -2817 0
-1473 -378 2817 0
1473 -1338 -1073 0
1473 -1338 -2144 0
1473 -1338 203 0
1473 -1338 2392 0
1473 -1338 1634 -2144 0
1473 -1338 -1634 2144 0
1473 -1338 733 -2392 0
1473 -1338 -733 2392 0
1473 -1338 699 -1073 0
1473 -1338 -699 1073 0
1473 -1338 613 -203 0
1473 -1338 -613 203 0
1473 1338 1908 0
1473 1338 1581 0
1473 1338 -1125 0
1473 1338 -2854 0
1473 1338 1634 -1581 0
1473 1338 -1634 1581 0
1473 1338 733 -2854 0
1473 1338 -733 2854 0
1473 1338 699 -1908 0
1473 1338 -699 1908 0
1473 1338 613 -1125 0
1473 1338 -613 1125 0
1473 288 0
1473 1361 -1634 0
1473 -1361 1634 0
1473 890 -733 0
1473 -890 733 0
1473 2169 -699 0
1473 -2169 699 0
1473 378 -613 0
1473 -378 613 0
-2926 -611 -554 0
-2926 -611 -2770 0
-2926 -611 -888 0
-2926 -611 -2247 0
-2926 -611 1455 -2770 0
-2926 -611 -1455 2770 0
-2926 -611 2569 -2247 0
-2926 -611 -2569 2247 0
-2926 -611 519 -554 0
-2926 -611 -519 554 0
-2926 -611 2809 -888 0
-2926 -611 -2809 888 0
-2926 611 2079 0
-2926 611 874 0
-2926 611 2857 0
-2926 611 2818 0
-2926 611 1455 -874 0
-2926 611 -1455 874 0
-2926 611 2569 -2818 0
-2926 611 -2569 2818 0
-2926 611 519 -2079 0
-2926 611 -519 2079 0
-2926 611 2809 -2857 0
-2926 611 -2809 2857 0
-2926 2464 0
-2926 2997 -1455 0
-2926 -2997 1455 0
-2926 582 -2569 0
-2926 -582 2569 0
-2926 1361 -519 0
-2926 -1361 519 0
-2926 2794 -2809 0
-2926 -2794 2809 0
2926 -437 -1065 0
2926 -437 -1662 0
2926 -437 2344 0
2926 -437 2566 0
2926 -437 1647 -1662 0
2926 -437 -1647 1662 0
2926 -437 482 -2566 0
2926 -437 -482 2566 0
2926 -437 1588 -1065 0
2926 -437 -1588 1065 0
2926 -437 213 -2344 0
2926 -437 -213 2344 0
2926 437 3002 0
2926 437 2093 0
2926 437 -1495 0
2926 437 -3130 0
2926 437 1647 -2093 0
2926 437 -1647 2093 0
2926 437 482 -3130 0
2926 437 -482 3130 0
2926 437 1588 -3002 0
2926 437 -1588 3002 0
2926 437 213 -1495 0
2926 437 -213 1495 0
2926 878 0
2926 2997 -1647 0
2926 -2997 1647 0
2926 582 -482 0
2926 -582 482 0
2926 1361 -1588 0
2926 -1361 1588 0
2926 2794 -213 0
2926 -2794 213 0
-588 -2643 -836 0
-588 -2643 -142 0
-588 -2643 -2026 0
-588 -2643 -2990 0
-588 -2643 1059 -142 0
-588 -2643 -1059 142 0
-588 -2643 2965 -2990 0
-588 -2643 -2965 2990 0
-588 -2643 1252 -836 0
-588 -2643 -1252 836 0
-588 -2643 3038 -2026 0
-588 -2643 -3038 2026 0
-588 2643 2883 0
-588 2643 1174 0
-588 2643 2396 0
-588 2643 1755 0
-588 2643 1059 -1174 0
-588 2643 -1059 1174 0
-588 2643 2965 -1755 0
-588 2643 -2965 1755 0
-588 2643 1252 -2883 0
-588 2643 -1252 2883 0
-588 2643 3038 -2396 0
-588 2643 -3038 2396 0
-588 1859 0
-588 828 -1059 0
-588 -828 1059 0
-588 2237 -2965 0
-588 -2237 2965 0
-588 2924 -1252 0
-588 -2924 1252 0
-588 3107 -3038 0
-588 -3107 3038 0
588 -2822 -1980 0
588 -2822 -1782 0
588 -2822 936 0
588 -2822 1795 0
588 -2822 884 -1782 0
588 -2822 -884 1782 0
588 -2822 3163 -1795 0
588 -2822 -3163 1795 0
588 -2822 2824 -1980 0
588 -2822 -2824 1980 0
588 -2822 2595 -936 0
588 -2822 -2595 936 0
588 2822 179 0
588 2822 927 0
588 2822 -2028 0
588 2822 -1653 0
588 2822 884 -927 0
588 2822 -884 927 0
588 2822 3163 -1653 0
588 2822 -3163 1653 0
588 2822 2824 -179 0
588 2822 -2824 179 0
588 2822 2595 -2028 0
588 2822 -2595 2028 0
588 2602 0
588 828 -884 0
588 -828 884 0
588 2237 -3163 0
588 -2237 3163 0
588 2924 -2824 0
588 -2924 2824 0
588 3107 -2595 0
588 -3107 2595 0
-2097 -2709 -3133 0
-2097 -2709 -564 0
-2097 -2709 -292 0
-2097 -2709 -1987 0
-2097 -2709 1199 -564 0
-2097 -2709 -1199 564 0
-2097 -2709 2963 -1987 0
-2097 -2709 -2963 1987 0
-2097 -2709 351 -3133 0
-2097 -2709 -351 3133 0
-2097 -2709 1665 -292 0
-2097 -2709 -1665 292 0
-2097 2709 15 0
-2097 2709 685 0
-2097 2709 3116 0
-2097 2709 1208 0
-2097 2709 1199 -685 0
-2097 2709 -1199 685 0
-2097 2709 2963 -1208 0
-2097 2709 -2963 1208 0
-2097 2709 351 -15 0
-2097 2709 -351 15 0
-2097 2709 1665 -3116 0
-2097 2709 -1665 3116 0
-2097 2979 0
-2097 2278 -1199 0
-2097 -2278 1199 0
-2097 1924 -2963 0
-2097 -1924 2963 0
-2097 828 -351 0
-2097 -828 351 0
-2097 726 -1665 0
-2097 -726 1665 0
2097 -2389 -3159 0
2097 -2389 -2848 0
2097 -2389 1248 0
2097 -2389 279 0
2097 -2389 624 -2848 0
2097 -2389 -624 2848 0
2097 -2389 2541 -279 0
2097 -2389 -2541 279 0
2097 -2389 1610 -3159 0
2097 -2389 -1610 3159 0
2097 -2389 1677 -1248 0
2097 -2389 -1677 1248 0
2097 2389 2434 0
2097 2389 774 0
2097 2389 -2687 0
2097 2389 -2146 0
2097 2389 624 -774 0
2097 2389 -624 774 0
2097 2389 2541 -2146 0
2097 2389 -2541 2146 0
2097 2389 1610 -2434 0
2097 2389 -1610 2434 0
2097 2389 1677 -2687 0
2097 2389 -1677 2687 0
2097 549 0
2097 2278 -624 0
2097 -2278 624 0
2097 1924 -2541 0
2097 -1924 2541 0
2097 828 -1610 0
2097 -828 1610 0
2097 726 -1677 0
2097 -726 1677 0
-1951 -276 -2111 0
-1951 -276 -413 0
-1951 -276 -484 0
-1951 -276 -2550 0
-1951 -276 1801 -413 0
-1951 -276 -1801 413 0
-1951 -276 1825 -2550 0
-1951 -276 -1825 2550 0
-1951 -276 101 -2111 0
-1951 -276 -101 2111 0
-1951 -276 1746 -484 0
-1951 -276 -1746 484 0
-1951 276 181 0
-1951 276 2801 0
-1951 276 1607 0
-1951 276 1432 0
-1951 276 1801 -2801 0
-1951 276 -1801 2801 0
-1951 276 1825 -1432 0
-1951 276 -1825 1432 0
-1951 276 101 -181 0
-1951 276 -101 181 0
-1951 276 1746 -1607 0
-1951 276 -1746 1607 0
-1951 1989 0
-1951 1979 -1801 0
-1951 -1979 1801 0
-1951 2343 -1825 0
-1951 -2343 1825 0
-1951 1102 -101 0
-1951 -1102 101 0
-1951 61 -1746 0
-1951 -61 1746 0
1951 -758 -2485 0
1951 -758 -719 0
1951 -758 345 0
1951 -758 2910 0
1951 -758 1923 -719 0
1951 -758 -1923 719 0
1951 -758 785 -2910 0
1951 -758 -785 2910 0
1951 -758 2355 -2485 0
1951 -758 -2355 2485 0
1951 -758 2605 -345 0
1951 -758 -2605 345 0
1951 758 1478 0
1951 758 3172 0
1951 758 -18 0
1951 758 -2499 0
1951 758 1923 -3172 0
1951 758 -1923 3172 0
1951 758 785 -2499 0
1951 758 -785 2499 0
1951 758 2355 -1478 0
1951 758 -2355 1478 0
1951 758 2605 -18 0
1951 758 -2605 18 0
1951 2165 0
1951 1979 -1923 0
1951 -1979 1923 0
1951 2343 -785 0
1951 -2343 785 0
1951 1102 -2355 0
1951 -1102 2355 0
1951 61 -2605 0
1951 -61 2605 0
-1611 -1203 -95 0
-1611 -1203 -196 0
-1611 -1203 -94 0
-1611 -1203 -961 0
-1611 -1203 2209 -196 0
-1611 -1203 -2209 196 0
-1611 -1203 2524 -961 0
-1611 -1203 -2524 961 0
-1611 -1203 120 -95 0
-1611 -1203 -120 95 0
-1611 -1203 347 -94 0
-1611 -1203 -347 94 0
-1611 1203 901 0
-1611 1203 1400 0
-1611 1203 1106 0
-1611 1203 458 0
-1611 1203 2209 -1400 0
-1611 1203 -2209 1400 0
-1611 1203 2524 -458 0
-1611 1203 -2524 458 0
-1611 1203 120 -901 0
-1611 1203 -120 901 0
-1611 1203 347 -1106 0
-1611 1203 -347 1106 0
-1611 810 0
-1611 1860 -2209 0
-1611 -1860 2209 0
-1611 1560 -2524 0
-1611 -1560 2524 0
-1611 1979 -120 0
-1611 -1979 120 0
-1611 1757 -347 0
-1611 -1757 347 0
1611 -2534 -2366 0
1611 -2534 -127 0
1611 -2534 3000 0
1611 -2534 1304 0
1611 -2534 2145 -127 0
1611 -2534 -2145 127 0
1611 -2534 3099 -1304 0
1611 -2534 -3099 1304 0
1611 -2534 1076 -2366 0
1611 -2534 -1076 2366 0
1611 -2534 266 -3000 0
1611 -2534 -266 3000 0
1611 2534 1555 0
1611 2534 2893 0
1611 2534 -1893 0
1611 2534 -2158 0
1611 2534 2145 -2893 0
1611 2534 -2145 2893 0
1611 2534 3099 -2158 0
1611 2534 -3099 2158 0
1611 2534 1076 -1555 0
1611 2534 -1076 1555 0
1611 2534 266 -1893 0
1611 2534 -266 1893 0
1611 1802 0
1611 1860 -2145 0
1611 -1860 2145 0
1611 1560 -3099 0
1611 -1560 3099 0
1611 1979 -1076 0
1611 -1979 1076 0
1611 1757 -266 0
1611 -1757 266 0
-1828 -3059 -1319 0
-1828 -3059 -567 0
-1828 -3059 -879 0
-1828 -3059 -676 0
-1828 -3059 1573 -567 0
-1828 -3059 -1573 567 0
-1828 -3059 2747 -676 0
-1828 -3059 -2747 676 0
-1828 -3059 310 -1319 0
-1828 -3059 -310 1319 0
-1828 -3059 2971 -879 0
-1828 -3059 -2971 879 0
-1828 3059 717 0
-1828 3059 2229 0
-1828 3059 1413 0
-1828 3059 1042 0
-1828 3059 1573 -2229 0
-1828 3059 -1573 2229 0
-1828 3059 2747 -1042 0
-1828 3059 -2747 1042 0
-1828 3059 310 -717 0
-1828 3059 -310 717 0
-1828 3059 2971 -1413 0
-1828 3059 -2971 1413 0
-1828 2004 0
-1828 88 -1573 0
-1828 -88 1573 0
-1828 2878 -2747 0
-1828 -2878 2747 0
-1828 999 -310 0
-1828 -999 310 0
-1828 906 -2971 0
-1828 -906 2971 0
1828 -2132 -277 0
1828 -2132 -2673 0
1828 -2132 1504 0
1828 -2132 2941 0
1828 -2132 3001 -2673 0
1828 -2132 -3001 2673 0
1828 -2132 1472 -2941 0
1828 -2132 -1472 2941 0
1828 -2132 2899 -277 0
1828 -2132 -2899 277 0
1828 -2132 323 -1504 0
1828 -2132 -323 1504 0
1828 2132 1471 0
1828 2132 682 0
1828 2132 -1218 0
1828 2132 -2303 0
1828 2132 3001 -682 0
1828 2132 -3001 682 0
1828 2132 1472 -2303 0
1828 2132 -1472 2303 0
1828 2132 2899 -1471 0
1828 2132 -2899 1471 0
1828 2132 323 -1218 0
1828 2132 -323 1218 0
1828 709 0
1828 88 -3001 0
1828 -88 3001 0
1828 2878 -1472 0
1828 -2878 1472 0
1828 999 -2899 0
1828 -999 2899 0
1828 906 -323 0
1828 -906 323 0
-1817 -2751 -2133 0
-1817 -2751 -2020 0
-1817 -2751 -2683 0
-1817 -2751 -349 0
-1817 -2751 1834 -2020 0
-1817 -2751 -1834 2020 0
-1817 -2751 1500 -349 0
-1817 -2751 -1500 349 0
-1817 -2751 1110 -2133 0
-1817 -2751 -1110 2133 0
-1817 -2751 2025 -2683 0
-1817 -2751 -2025 2683 0
-1817 2751 2505 0
-1817 2751 1747 0
-1817 2751 1693 0
-1817 2751 2190 0
-1817 2751 1834 -1747 0
-1817 2751 -1834 1747 0
-1817 2751 1500 -2190 0
-1817 2751 -1500 2190 0
-1817 2751 1110 -2505 0
-1817 2751 -1110 2505 0
-1817 2751 2025 -1693 0
-1817 2751 -2025 1693 0
-1817 2909 0
-1817 2233 -1834 0
-1817 -2233 1834 0
-1817 331 -1500 0
-1817 -331 1500 0
-1817 88 -1110 0
-1817 -88 1110 0
-1817 1313 -2025 0
-1817 -1313 2025 0
1817 -1251 -2369 0
1817 -1251 -2075 0
1817 -1251 2127 0
1817 -1251 1590 0
1817 -1251 2501 -2075 0
1817 -1251 -2501 2075 0
1817 -1251 522 -1590 0
1817 -1251 -522 1590 0
1817 -1251 2933 -2369 0
1817 -1251 -2933 2369 0
1817 -1251 454 -2127 0
1817 -1251 -454 2127 0
1817 1251 1719 0
1817 1251 2336 0
1817 1251 -742 0
1817 1251 -3191 0
1817 1251 2501 -2336 0
1817 1251 -2501 2336 0
1817 1251 522 -3191 0
1817 1251 -522 3191 0
1817 1251 2933 -1719 0
1817 1251 -2933 1719 0
1817 1251 454 -742 0
1817 1251 -454 742 0
1817 1543 0
1817 2233 -2501 0
1817 -2233 2501 0
1817 331 -522 0
1817 -331 522 0
1817 88 -2933 0
1817 -88 2933 0
1817 1313 -454 0
1817 -1313 454 0
-38 -2202 -370 0
-38 -2202 -2540 0
-38 -2202 -1778 0
-38 -2202 -141 0
-38 -2202 2231 -2540 0
-38 -2202 -2231 2540 0
-38 -2202 121 -141 0
-38 -2202 -121 141 0
-38 -2202 1351 -370 0
-38 -2202 -1351 370 0
-38 -2202 1601 -1778 0
-38 -2202 -1601 1778 0
-38 2202 233 0
-38 2202 3124 0
-38 2202 952 0
-38 2202 1058 0
-38 2202 2231 -3124 0
-38 2202 -2231 3124 0
-38 2202 121 -1058 0
-38 2202 -121 1058 0
-38 2202 1351 -233 0
-38 2202 -1351 233 0
-38 2202 1601 -952 0
-38 2202 -1601 952 0
-38 373 0
-38 1449 -2231 0
-38 -1449 2231 0
-38 2558 -121 0
-38 -2558 121 0
-38 2233 -1351 0
-38 -2233 1351 0
-38 1293 -1601 0
-38 -1293 1601 0
38 -526 -2044 0
38 -526 -2046 0
38 -526 654 0
38 -526 729 0
38 -526 1317 -2046 0
38 -526 -1317 2046 0
38 -526 1120 -729 0
38 -526 -1120 729 0
38 -526 1576 -2044 0
38 -526 -1576 2044 0
38 -526 1116 -654 0
38 -526 -1116 654 0
38 526 1242 0
38 526 659 0
38 526 -1508 0
38 526 -1154 0
38 526 1317 -659 0
38 526 -1317 659 0
38 526 1120 -1154 0
38 526 -1120 1154 0
38 526 1576 -1242 0
38 526 -1576 1242 0
38 526 1116 -1508 0
38 526 -1116 1508 0
38 2788 0
38 1449 -1317 0
38 -1449 1317 0
38 2558 -1120 0
38 -2558 1120 0
38 2233 -1576 0
38 -2233 1576 0
38 1293 -1116 0
38 -1293 1116 0
-394 -160 -2532 0
-394 -160 -1533 0
-394 -160 -2715 0
-394 -160 -2888 0
-394 -160 1654 -1533 0
-394 -160 -1654 1533 0
-394 -160 2422 -2888 0
-394 -160 -2422 2888 0
-394 -160 1524 -2532 0
-394 -160 -1524 2532 0
-394 -160 2635 -2715 0
-394 -160 -2635 2715 0
-394 160 1644 0
-394 160 2320 0
-394 160 1872 0
-394 160 1481 0
-394 160 1654 -2320 0
-394 160 -1654 2320 0
-394 160 2422 -1481 0
-394 160 -2422 1481 0
-394 160 1524 -1644 0
-394 160 -1524 1644 0
-394 160 2635 -1872 0
-394 160 -2635 1872 0
-394 1622 0
-394 2987 -1654 0
-394 -2987 1654 0
-394 815 -2422 0
-394 -815 2422 0
-394 1562 -1524 0
-394 -1562 1524 0
-394 2465 -2635 0
-394 -2465 2635 0
394 -2311 -2879 0
394 -2311 -2985 0
394 -2311 957 0
394 -2311 1968 0
394 -2311 894 -2985 0
394 -2311 -894 2985 0
394 -2311 372 -1968 0
394 -2311 -372 1968 0
394 -2311 516 -2879 0
394 -2311 -516 2879 0
394 -2311 2707 -957 0
394 -2311 -2707 957 0
394 2311 560 0
394 2311 2007 0
394 2311 -1139 0
394 2311 -2939 0
394 2311 894 -2007 0
394 2311 -894 2007 0
394 2311 372 -2939 0
394 2311 -372 2939 0
394 2311 516 -560 0
394 2311 -516 560 0
394 2311 2707 -1139 0
394 2311 -2707 1139 0
394 2754 0
394 2987 -894 0
394 -2987 894 0
394 815 -372 0
394 -815 372 0
394 1562 -516 0
394 -1562 516 0
394 2465 -2707 0
394 -2465 2707 0
-25 -4 -2126 0
-25 -4 -1416 0
-25 -4 -1537 0
-25 -4 -1889 0
-25 -4 527 -1416 0
-25 -4 -527 1416 0
-25 -4 565 -1889 0
-25 -4 -565 1889 0
-25 -4 3138 -2126 0
-25 -4 -3138 2126 0
-25 -4 1016 -1537 0
-25 -4 -1016 1537 0
-25 4 2005 0
-25 4 2711 0
-25 4 2904 0
-25 4 1569 0
-25 4 527 -2711 0
-25 4 -527 2711 0
-25 4 565 -1569 0
-25 4 -565 1569 0
-25 4 3138 -2005 0
-25 4 -3138 2005 0
-25 4 1016 -2904 0
-25 4 -1016 2904 0
-25 2908 0
-25 1235 -527 0
-25 -1235 527 0
-25 2012 -565 0
-25 -2012 565 0
-25 1371 -3138 0
-25 -1371 3138 0
-25 1924 -1016 0
-25 -1924 1016 0
25 -2140 -2024 0
25 -2140 -1318 0
25 -2140 2912 0
25 -2140 1145 0
25 -2140 23 -1318 0
25 -2140 -23 1318 0
25 -2140 1554 -1145 0
25 -2140 -1554 1145 0
25 -2140 3121 -2024 0
25 -2140 -3121 2024 0
25 -2140 634 -2912 0
25 -2140 -634 2912 0
25 2140 1062 0
25 2140 1517 0
25 2140 -1658 0
25 2140 -45 0
25 2140 23 -1517 0
25 2140 -23 1517 0
25 2140 1554 -45 0
25 2140 -1554 45 0
25 2140 3121 -1062 0
25 2140 -3121 1062 0
25 2140 634 -1658 0
25 2140 -634 1658 0
25 336 0
25 1235 -23 0
25 -1235 23 0
25 2012 -1554 0
25 -2012 1554 0
25 1371 -3121 0
25 -1371 3121 0
25 1924 -634 0
25 -1924 634 0
-1383 -1959 -2350 0
-1383 -1959 -2360 0
-1383 -1959 -515 0
-1383 -1959 -423 0
-1383 -1959 638 -2360 0
-1383 -1959 -638 2360 0
-1383 -1959 1387 -423 0
-1383 -1959 -1387 423 0
-1383 -1959 1827 -2350 0
-1383 -1959 -1827 2350 0
-1383 -1959 2230 -515 0
-1383 -1959 -2230 515 0
-1383 1959 1217 0
-1383 1959 1912 0
-1383 1959 2748 0
-1383 1959 479 0
-1383 1959 638 -1912 0
-1383 1959 -638 1912 0
-1383 1959 1387 -479 0
-1383 1959 -1387 479 0
-1383 1959 1827 -1217 0
-1383 1959 -1827 1217 0
-1383 1959 2230 -2748 0
-1383 1959 -2230 2748 0
-1383 249 0
-1383 383 -638 0
-1383 -383 638 0
-1383 1876 -1387 0
-1383 -1876 1387 0
-1383 797 -1827 0
-1383 -797 1827 0
-1383 2012 -2230 0
-1383 -2012 2230 0
1383 -1427 -2745 0
1383 -1427 -811 0
1383 -1427 1286 0
1383 -1427 187 0
1383 -1427 847 -811 0
1383 -1427 -847 811 0
1383 -1427 143 -187 0
1383 -1427 -143 187 0
1383 -1427 2138 -2745 0
1383 -1427 -2138 2745 0
1383 -1427 312 -1286 0
1383 -1427 -312 1286 0
1383 1427 1688 0
1383 1427 217 0
1383 1427 -2033 0
1383 1427 -628 0
1383 1427 847 -217 0
1383 1427 -847 217 0
1383 1427 143 -628 0
1383 1427 -143 628 0
1383 1427 2138 -1688 0
1383 1427 -2138 1688 0
1383 1427 312 -2033 0
1383 1427 -312 2033 0
1383 2733 0
1383 383 -847 0
1383 -383 847 0
1383 1876 -143 0
1383 -1876 143 0
1383 797 -2138 0
1383 -797 2138 0
1383 2012 -312 0
1383 -2012 312 0
-3034 -1602 -136 0
-3034 -1602 -1748 0
-3034 -1602 -2475 0
-3034 -1602 -466 0
-3034 -1602 989 -1748 0
-3034 -1602 -989 1748 0
-3034 -1602 2756 -466 0
-3034 -1602 -2756 466 0
-3034 -1602 705 -136 0
-3034 -1602 -705 136 0
-3034 -1602 363 -2475 0
-3034 -1602 -363 2475 0
-3034 1602 2562 0
-3034 1602 2998 0
-3034 1602 498 0
-3034 1602 2073 0
-3034 1602 989 -2998 0
-3034 1602 -989 2998 0
-3034 1602 2756 -2073 0
-3034 1602 -2756 2073 0
-3034 1602 705 -2562 0
-3034 1602 -705 2562 0
-3034 1602 363 -498 0
-3034 1602 -363 498 0
-3034 1907 0
-3034 2338 -989 0
-3034 -2338 989 0
-3034 866 -2756 0
-3034 -866 2756 0
-3034 1669 -705 0
-3034 -1669 705 0
-3034 1560 -363 0
-3034 -1560 363 0
3034 -1179 -419 0
3034 -1179 -2267 0
3034 -1179 1956 0
3034 -1179 3003 0
3034 -1179 2862 -2267 0
3034 -1179 -2862 2267 0
3034 -1179 1095 -3003 0
3034 -1179 -1095 3003 0
3034 -1179 1386 -419 0
3034 -1179 -1386 419 0
3034 -1179 1809 -1956 0
3034 -1179 -1809 1956 0
3034 1179 443 0
3034 1179 538 0
3034 1179 -2518 0
3034 1179 -192 0
3034 1179 2862 -538 0
3034 1179 -2862 538 0
3034 1179 1095 -192 0
3034 1179 -1095 192 0
3034 1179 1386 -443 0
3034 1179 -1386 443 0
3034 1179 1809 -2518 0
3034 1179 -1809 2518 0
3034 2426 0
3034 2338 -2862 0
3034 -2338 2862 0
3034 866 -1095 0
3034 -866 1095 0
3034 1669 -1386 0
3034 -1669 1386 0
3034 1560 -1809 0
3034 -1560 1809 0
-320 -1080 -1884 0
-320 -1080 -176 0
-320 -1080 -2624 0
-320 -1080 -446 0
-320 -1080 2358 -176 0
-320 -1080 -2358 176 0
-320 -1080 1241 -446 0
-320 -1080 -1241 446 0
-320 -1080 1229 -1884 0
-320 -1080 -1229 1884 0
-320 -1080 2346 -2624 0
-320 -1080 -2346 2624 0
-320 1080 2100 0
-320 1080 236 0
-320 1080 2760 0
-320 1080 74 0
-320 1080 2358 -236 0
-320 1080 -2358 236 0
-320 1080 1241 -74 0
-320 1080 -1241 74 0
-320 1080 1229 -2100 0
-320 1080 -1229 2100 0
-320 1080 2346 -2760 0
-320 1080 -2346 2760 0
-320 2399 0
-320 1930 -2358 0
-320 -1930 2358 0
-320 724 -1241 0
-320 -724 1241 0
-320 2338 -1229 0
-320 -2338 1229 0
-320 102 -2346 0
-320 -102 2346 0
320 -604 -1545 0
320 -604 -1476 0
320 -604 1066 0
320 -604 2157 0
320 -604 438 -1476 0
320 -604 -438 1476 0
320 -604 1267 -2157 0
320 -604 -1267 2157 0
320 -604 1638 -1545 0
320 -604 -1638 1545 0
320 -604 220 -1066 0
320 -604 -220 1066 0
320 604 1388 0
320 604 783 0
320 604 -1972 0
320 604 -28 0
320 604 438 -783 0
320 604 -438 783 0
320 604 1267 -28 0
320 604 -1267 28 0
320 604 1638 -1388 0
320 604 -1638 1388 0
320 604 220 -1972 0
320 604 -220 1972 0
320 2552 0
320 1930 -438 0
320 -1930 438 0
320 724 -1267 0
320 -724 1267 0
320 2338 -1638 0
320 -2338 1638 0
320 102 -220 0
320 -102 220 0
-751 -1522 -2504 0
-751 -1522 -1973 0
-751 -1522 -2215 0
-751 -1522 -1177 0
-751 -1522 2753 -1973 0
-751 -1522 -2753 1973 0
-751 -1522 1994 -1177 0
-751 -1522 -1994 1177 0
-751 -1522 361 -2504 0
-751 -1522 -361 2504 0
-751 -1522 2915 -2215 0
-751 -1522 -2915 2215 0
-751 1522 2682 0
-751 1522 2802 0
-751 1522 610 0
-751 1522 1233 0
-751 1522 2753 -2802 0
-751 1522 -2753 2802 0
-751 1522 1994 -1233 0
-751 1522 -1994 1233 0
-751 1522 361 -2682 0
-751 1522 -361 2682 0
-751 1522 2915 -610 0
-751 1522 -2915 610 0
-751 1651 0
-751 2017 -2753 0
-751 -2017 2753 0
-751 2993 -1994 0
-751 -2993 1994 0
-751 2343 -361 0
-751 -2343 361 0
-751 890 -2915 0
-751 -890 2915 0
751 -2579 -2596 0
751 -2579 -2806 0
751 -2579 2921 0
751 -2579 1753 0
751 -2579 1320 -2806 0
751 -2579 -1320 2806 0
751 -2579 2348 -1753 0
751 -2579 -2348 1753 0
751 -2579 318 -2596 0
751 -2579 -318 2596 0
751 -2579 1846 -2921 0
751 -2579 -1846 2921 0
751 2579 502 0
751 2579 157 0
751 2579 -2785 0
751 2579 -756 0
751 2579 1320 -157 0
751 2579 -1320 157 0
751 2579 2348 -756 0
751 2579 -2348 756 0
751 2579 318 -502 0
751 2579 -318 502 0
751 2579 1846 -2785 0
751 2579 -1846 2785 0
751 2096 0
751 2017 -1320 0
751 -2017 1320 0
751 2993 -2348 0
751 -2993 2348 0
751 2343 -318 0
751 -2343 318 0
751 890 -1846 0
751 -890 1846 0
-1866 -2561 -900 0
-1866 -2561 -792 0
-1866 -2561 -1877 0
-1866 -2561 -1969 0
-1866 -2561 1781 -792 0
-1866 -2561 -1781 792 0
-1866 -2561 1679 -1969 0
-1866 -2561 -1679 1969 0
-1866 -2561 1425 -900 0
-1866 -2561 -1425 900 0
-1866 -2561 1276 -1877 0
-1866 -2561 -1276 1877 0
-1866 2561 1728 0
-1866 2561 1374 0
-1866 2561 1526 0
-1866 2561 578 0
-1866 2561 1781 -1374 0
-1866 2561 -1781 1374 0
-1866 2561 1679 -578 0
-1866 2561 -1679 578 0
-1866 2561 1425 -1728 0
-1866 2561 -1425 1728 0
-1866 2561 1276 -1526 0
-1866 2561 -1276 1526 0
-1866 2104 0
-1866 289 -1781 0
-1866 -289 1781 0
-1866 483 -1679 0
-1866 -483 1679 0
-1866 2993 -1425 0
-1866 -2993 1425 0
-1866 2114 -1276 0
-1866 -2114 1276 0
1866 -2189 -90 0
1866 -2189 -245 0
1866 -2189 1169 0
1866 -2189 2586 0
1866 -2189 3187 -245 0
1866 -2189 -3187 245 0
1866 -2189 409 -2586 0
1866 -2189 -409 2586 0
1866 -2189 814 -90 0
1866 -2189 -814 90 0
1866 -2189 1017 -1169 0
1866 -2189 -1017 1169 0
1866 2189 315 0
1866 2189 2680 0
1866 2189 -1864 0
1866 2189 -112 0
1866 2189 3187 -2680 0
1866 2189 -3187 2680 0
1866 2189 409 -112 0
1866 2189 -409 112 0
1866 2189 814 -315 0
1866 2189 -814 315 0
1866 2189 1017 -1864 0
1866 2189 -1017 1864 0
1866 1068 0
1866 289 -3187 0
1866 -289 3187 0
1866 483 -409 0
1866 -483 409 0
1866 2993 -814 0
1866 -2993 814 0
1866 2114 -1017 0
1866 -2114 1017 0
-499 -2240 -1853 0
-499 -2240 -1381 0
-499 -2240 -2996 0
-499 -2240 -2891 0
-499 -2240 1927 -1381 0
-499 -2240 -1927 1381 0
-499 -2240 406 -2891 0
-499 -2240 -406 2891 0
-499 -2240 2184 -1853 0
-499 -2240 -2184 1853 0
-499 -2240 680 -2996 0
-499 -2240 -680 2996 0
-499 2240 3164 0
-499 2240 996 0
-499 2240 379 0
-499 2240 2430 0
-499 2240 1927 -996 0
-499 2240 -1927 996 0
-499 2240 406 -2430 0
-499 2240 -406 2430 0
-499 2240 2184 -3164 0
-499 2240 -2184 3164 0
-499 2240 680 -379 0
-499 2240 -680 379 0
-499 2962 0
-499 1780 -1927 0
-499 -1780 1927 0
-499 2325 -406 0
-499 -2325 406 0
-499 2878 -2184 0
-499 -2878 2184 0
-499 1394 -680 0
-499 -1394 680 0
499 -194 -1008 0
499 -194 -744 0
499 -194 630 0
499 -194 155 0
499 -194 2289 -744 0
499 -194 -2289 744 0
499 -194 3190 -155 0
499 -194 -3190 155 0
499 -194 2329 -1008 0
499 -194 -2329 1008 0
499 -194 948 -630 0
499 -194 -948 630 0
499 194 645 0
499 194 2307 0
499 194 -3103 0
499 194 -881 0
499 194 2289 -2307 0
499 194 -2289 2307 0
499 194 3190 -881 0
499 194 -3190 881 0
499 194 2329 -645 0
499 194 -2329 645 0
499 194 948 -3103 0
499 194 -948 3103 0
499 589 0
499 1780 -2289 0
499 -1780 2289 0
499 2325 -3190 0
499 -2325 3190 0
499 2878 -2329 0
499 -2878 2329 0
499 1394 -948 0
499 -1394 948 0
-2410 -1382 -2062 0
-2410 -1382 -1932 0
-2410 -1382 -1511 0
-2410 -1382 -2764 0
-2410 -1382 666 -1932 0
-2410 -1382 -666 1932 0
-2410 -1382 584 -2764 0
-2410 -1382 -584 2764 0
-2410 -1382 1023 -2062 0
-2410 -1382 -1023 2062 0
-2410 -1382 403 -1511 0
-2410 -1382 -403 1511 0
-2410 1382 1631 0
-2410 1382 931 0
-2410 1382 1911 0
-2410 1382 453 0
-2410 1382 666 -931 0
-2410 1382 -666 931 0
-2410 1382 584 -453 0
-2410 1382 -584 453 0
-2410 1382 1023 -1631 0
-2410 1382 -1023 1631 0
-2410 1382 403 -1911 0
-2410 1382 -403 1911 0
-2410 2081 0
-2410 2773 -666 0
-2410 -2773 666 0
-2410 1259 -584 0
-2410 -1259 584 0
-2410 421 -1023 0
-2410 -421 1023 0
-2410 650 -403 0
-2410 -650 403 0
2410 -1035 -308 0
2410 -1035 -2497 0
2410 -1035 2880 0
2410 -1035 2640 0
2410 -1035 1770 -2497 0
2410 -1035 -1770 2497 0
2410 -1035 1232 -2640 0
2410 -1035 -1232 2640 0
2410 -1035 2315 -308 0
2410 -1035 -2315 308 0
2410 -1035 2514 -2880 0
2410 -1035 -2514 2880 0
2410 1035 2262 0
2410 1035 2487 0
2410 1035 -1559 0
2410 1035 -1069 0
2410 1035 1770 -2487 0
2410 1035 -1770 2487 0
2410 1035 1232 -1069 0
2410 1035 -1232 1069 0
2410 1035 2315 -2262 0
2410 1035 -2315 2262 0
2410 1035 2514 -1559 0
2410 1035 -2514 1559 0
2410 975 0
2410 2773 -1770 0
2410 -2773 1770 0
2410 1259 -1232 0
2410 -1259 1232 0
2410 421 -2315 0
2410 -421 2315 0
2410 650 -2514 0
2410 -650 2514 0
-334 -2583 -3126 0
-334 -2583 -1105 0
-334 -2583 -2106 0
-334 -2583 -1334 0
-334 -2583 1929 -1105 0
-334 -2583 -1929 1105 0
-334 -2583 909 -1334 0
-334 -2583 -909 1334 0
-334 -2583 1104 -3126 0
-334 -2583 -1104 3126 0
-334 -2583 3127 -2106 0
-334 -2583 -3127 2106 0
-334 2583 1734 0
-334 2583 807 0
-334 2583 2236 0
-334 2583 2559 0
-334 2583 1929 -807 0
-334 2583 -1929 807 0
-334 2583 909 -2559 0
-334 2583 -909 2559 0
-334 2583 1104 -1734 0
-334 2583 -1104 1734 0
-334 2583 3127 -2236 0
-334 2583 -3127 2236 0
-334 2249 0
-334 820 -1929 0
-334 -820 1929 0
-334 642 -909 0
-334 -642 909 0
-334 331 -1104 0
-334 -331 1104 0
-334 286 -3127 0
-334 -286 3127 0
334 -1899 -1198 0
334 -1899 -2859 0
334 -1899 1046 0
334 -1899 1718 0
334 -1899 175 -2859 0
334 -1899 -175 2859 0
334 -1899 274 -1718 0
334 -1899 -274 1718 0
334 -1899 2495 -1198 0
334 -1899 -2495 1198 0
334 -1899 2850 -1046 0
334 -1899 -2850 1046 0
334 1899 846 0
334 1899 738 0
334 1899 -369 0
334 1899 -1836 0
334 1899 175 -738 0
334 1899 -175 738 0
334 1899 274 -1836 0
334 1899 -274 1836 0
334 1899 2495 -846 0
334 1899 -2495 846 0
334 1899 2850 -369 0
334 1899 -2850 369 0
334 1328 0
334 820 -175 0
334 -820 175 0
334 642 -274 0
334 -642 274 0
334 331 -2495 0
334 -331 2495 0
334 286 -2850 0
334 -286 2850 0
-962 -271 -1812 0
-962 -271 -1891 0
-962 -271 -3109 0
-962 -271 -859 0
-962 -271 1189 -1891 0
-962 -271 -1189 1891 0
-962 -271 300 -859 0
-962 -271 -300 859 0
-962 -271 2528 -1812 0
-962 -271 -2528 1812 0
-962 -271 2953 -3109 0
-962 -271 -2953 3109 0
-962 271 431 0
-962 271 1186 0
-962 271 639 0
-962 271 2977 0
-962 271 1189 -1186 0
-962 271 -1189 1186 0
-962 271 300 -2977 0
-962 271 -300 2977 0
-962 271 2528 -431 0
-962 271 -2528 431 0
-962 271 2953 -639 0
-962 271 -2953 639 0
-962 79 0
-962 1265 -1189 0
-962 -1265 1189 0
-962 761 -300 0
-962 -761 300 0
-962 483 -2528 0
-962 -483 2528 0
-962 642 -2953 0
-962 -642 2953 0
962 -267 -154 0
962 -267 -2972 0
962 -267 2440 0
962 -267 1944 0
962 -267 677 -2972 0
962 -267 -677 2972 0
962 -267 555 -1944 0
962 -267 -555 1944 0
962 -267 830 -154 0
962 -267 -830 154 0
962 -267 1829 -2440 0
962 -267 -1829 2440 0
962 267 1477 0
962 267 2152 0
962 267 -2420 0
962 267 -505 0
962 267 677 -2152 0
962 267 -677 2152 0
962 267 555 -505 0
962 267 -555 505 0
962 267 830 -1477 0
962 267 -830 1477 0
962 267 1829 -2420 0
962 267 -1829 2420 0
962 1331 0
962 1265 -677 0
962 -1265 677 0
962 761 -555 0
962 -761 555 0
962 483 -830 0
962 -483 830 0
962 642 -1829 0
962 -642 1829 0
-490 -773 -1858 0
-490 -773 -480 0
-490 -773 -50 0
-490 -773 -1489 0
-490 -773 1705 -480 0
-490 -773 -1705 480 0
-490 -773 2011 -1489 0
-490 -773 -2011 1489 0
-490 -773 1725 -1858 0
-490 -773 -1725 1858 0
-490 -773 35 -50 0
-490 -773 -35 50 0
-490 773 2548 0
-490 773 2724 0
-490 773 687 0
-490 773 393 0
-490 773 1705 -2724 0
-490 773 -1705 2724 0
-490 773 2011 -393 0
-490 773 -2011 393 0
-490 773 1725 -2548 0
-490 773 -1725 2548 0
-490 773 35 -687 0
-490 773 -35 687 0
-490 899 0
-490 2128 -1705 0
-490 -2128 1705 0
-490 55 -2011 0
-490 -55 2011 0
-490 815 -1725 0
-490 -815 1725 0
-490 582 -35 0
-490 -582 35 0
490 -2264 -2349 0
490 -2264 -342 0
490 -2264 1144 0
490 -2264 2055 0
490 -2264 1648 -342 0
490 -2264 -1648 342 0
490 -2264 2956 -2055 0
490 -2264 -2956 2055 0
490 -2264 1983 -2349 0
490 -2264 -1983 2349 0
490 -2264 966 -1144 0
490 -2264 -966 1144 0
490 2264 2330 0
490 2264 558 0
490 2264 -2928 0
490 2264 -1281 0
490 2264 1648 -558 0
490 2264 -1648 558 0
490 2264 2956 -1281 0
490 2264 -2956 1281 0
490 2264 1983 -2330 0
490 2264 -1983 2330 0
490 2264 966 -2928 0
490 2264 -966 2928 0
490 1290 0
490 2128 -1648 0
490 -2128 1648 0
490 55 -2956 0
490 -55 2956 0
490 815 -1983 0
490 -815 1983 0
490 582 -966 0
490 -582 966 0
-255 -1195 -450 0
-255 -1195 -1609 0
-255 -1195 -674 0
-255 -1195 -1365 0
-255 -1195 2984 -1609 0
-255 -1195 -2984 1609 0
-255 -1195 84 -1365 0
-255 -1195 -84 1365 0
-255 -1195 2815 -450 0
-255 -1195 -2815 450 0
-255 -1195 2359 -674 0
-255 -1195 -2359 674 0
-255 1195 1729 0
-255 1195 872 0
-255 1195 1712 0
-255 1195 655 0
-255 1195 2984 -872 0
-255 1195 -2984 872 0
-255 1195 84 -655 0
-255 1195 -84 655 0
-255 1195 2815 -1729 0
-255 1195 -2815 1729 0
-255 1195 2359 -1712 0
-255 1195 -2359 1712 0
-255 930 0
-255 2258 -2984 0
-255 -2258 2984 0
-255 1794 -84 0
-255 -1794 84 0
-255 2128 -2815 0
-255 -2128 2815 0
-255 761 -2359 0
-255 -761 2359 0
255 -855 -1619 0
255 -855 -1856 0
255 -855 707 0
255 -855 3135 0
255 -855 2160 -1856 0
255 -855 -2160 1856 0
255 -855 2197 -3135 0
255 -855 -2197 3135 0
255 -855 1579 -1619 0
255 -855 -1579 1619 0
255 -855 939 -707 0
255 -855 -939 707 0
255 855 3010 0
255 855 80 0
255 855 -3065 0
255 855 -1072 0
255 855 2160 -80 0
255 855 -2160 80 0
255 855 2197 -1072 0
255 855 -2197 1072 0
255 855 1579 -3010 0
255 855 -1579 3010 0
255 855 939 -3065 0
255 855 -939 3065 0
255 355 0
255 2258 -2160 0
255 -2258 2160 0
255 1794 -2197 0
255 -1794 2197 0
255 2128 -1579 0
255 -2128 1579 0
255 761 -939 0
255 -761 939 0
-3079 -1032 -1192 0
-3079 -1032 -57 0
-3079 -1032 -1055 0
-3079 -1032 -2896 0
-3079 -1032 2388 -57 0
-3079 -1032 -2388 57 0
-3079 -1032 381 -2896 0
-3079 -1032 -381 2896 0
-3079 -1032 912 -1192 0
-3079 -1032 -912 1192 0
-3079 -1032 2592 -1055 0
-3079 -1032 -2592 1055 0
-3079 1032 2409 0
-3079 1032 3011 0
-3079 1032 563 0
-3079 1032 442 0
-3079 1032 2388 -3011 0
-3079 1032 -2388 3011 0
-3079 1032 381 -442 0
-3079 1032 -381 442 0
-3079 1032 912 -2409 0
-3079 1032 -912 2409 0
-3079 1032 2592 -563 0
-3079 1032 -2592 563 0
-3079 3156 0
-3079 945 -2388 0
-3079 -945 2388 0
-3079 1438 -381 0
-3079 -1438 381 0
-3079 2558 -912 0
-3079 -2558 912 0
-3079 1794 -2592 0
-3079 -1794 2592 0
3079 -1684 -1341 0
3079 -1684 -1628 0
3079 -1684 66 0
3079 -1684 41 0
3079 -1684 1771 -1628 0
3079 -1684 -1771 1628 0
3079 -1684 1213 -41 0
3079 -1684 -1213 41 0
3079 -1684 3070 -1341 0
3079 -1684 -3070 1341 0
3079 -1684 1561 -66 0
3079 -1684 -1561 66 0
3079 1684 83 0
3079 1684 9 0
3079 1684 -415 0
3079 1684 -39 0
3079 1684 1771 -9 0
3079 1684 -1771 9 0
3079 1684 1213 -39 0
3079 1684 -1213 39 0
3079 1684 3070 -83 0
3079 1684 -3070 83 0
3079 1684 1561 -415 0
3079 1684 -1561 415 0
3079 614 0
3079 945 -1771 0
3079 -945 1771 0
3079 1438 -1213 0
3079 -1438 1213 0
3079 2558 -3070 0
3079 -2558 3070 0
3079 1794 -1561 0
3079 -1794 1561 0
-1715 -1040 -2421 0
-1715 -1040 -1047 0
-1715 -1040 -2022 0
-1715 -1040 -332 0
-1715 -1040 1548 -1047 0
-1715 -1040 -1548 1047 0
-1715 -1040 1597 -332 0
-1715 -1040 -1597 332 0
-1715 -1040 795 -2421 0
-1715 -1040 -795 2421 0
-1715 -1040 254 -2022 0
-1715 -1040 -254 2022 0
-1715 1040 283 0
-1715 1040 542 0
-1715 1040 2826 0
-1715 1040 2178 0
-1715 1040 1548 -542 0
-1715 1040 -1548 542 0
-1715 1040 1597 -2178 0
-1715 1040 -1597 2178 0
-1715 1040 795 -283 0
-1715 1040 -795 283 0
-1715 1040 254 -2826 0
-1715 1040 -254 2826 0
-1715 2227 0
-1715 2508 -1548 0
-1715 -2508 1548 0
-1715 2949 -1597 0
-1715 -2949 1597 0
-1715 1259 -795 0
-1715 -1259 795 0
-1715 1438 -254 0
-1715 -1438 254 0
1715 -2445 -1807 0
1715 -2445 -651 0
1715 -2445 2828 0
1715 -2445 1721 0
1715 -2445 2793 -651 0
1715 -2445 -2793 651 0
1715 -2445 69 -1721 0
1715 -2445 -69 1721 0
1715 -2445 2384 -1807 0
1715 -2445 -2384 1807 0
1715 -2445 330 -2828 0
1715 -2445 -330 2828 0
1715 2445 1796 0
1715 2445 2805 0
1715 2445 -2339 0
1715 2445 -132 0
1715 2445 2793 -2805 0
1715 2445 -2793 2805 0
1715 2445 69 -132 0
1715 2445 -69 132 0
1715 2445 2384 -1796 0
1715 2445 -2384 1796 0
1715 2445 330 -2339 0
1715 2445 -330 2339 0
1715 1592 0
1715 2508 -2793 0
1715 -2508 2793 0
1715 2949 -69 0
1715 -2949 69 0
1715 1259 -2384 0
1715 -1259 2384 0
1715 1438 -330 0
1715 -1438 330 0
853 -1642 0
-853 1642 0
2252 -3139 0
-2252 3139 0
2453 -835 0
-2453 835 0
3122 -290 0
-3122 290 0
2302 -2739 0
-2302 2739 0
2237 -1623 0
-2237 1623 0
1998 -3136 0
-1998 3136 0
2834 -688 0
-2834 688 0
2525 -319 0
-2525 319 0
1436 -3128 0
-1436 3128 0
2775 -2147 0
-2775 2147 0
2318 -1053 0
-2318 1053 0
1265 -1340 0
-1265 1340 0
55 -1399 0
-55 1399 0
2278 -789 0
-2278 789 0
289 -1700 0
-289 1700 0
866 -1463 0
-866 1463 0
2949 -2628 0
-2949 2628 0
3114 -670 0
-3114 670 0
1285 -2570 0
-1285 2570 0
2325 -748 0
-2325 748 0
59 -46 0
-59 46 0
904 -2273 0
-904 2273 0
1930 -1939 0
-1930 1939 0
2017 -273 0
-2017 273 0
2930 -775 0
-2930 775 0
105 -512 0
-105 512 0
2997 -1246 0
-2997 1246 0
2825 -2767 0
-2825 2767 0
123 -123 0
-123 123 0
2948 -925 0
-2948 925 0
945 -1773 0
-945 1773 0
2508 -476 0
-2508 476 0
487 -435 0
-487 435 0
2987 -2437 0
-2987 2437 0
1235 -1308 0
-1235 1308 0
2982 -440 0
-2982 440 0
1756 -1992 0
-1756 1992 0
984 -1629 0
-984 1629 0
1448 -2613 0
-1448 2613 0
1860 -1612 0
-1860 1612 0
1780 -1663 0
-1780 1663 0
2313 -240 0
-2313 240 0
3170 -735 0
-3170 735 0
456 -2811 0
-456 2811 0
1449 -999 0
-1449 999 0
2258 -3007 0
-2258 3007 0
449 -528 0
-449 528 0
755 -669 0
-755 669 0
2686 -250 0
-2686 250 0
1360 -741 0
-1360 741 0
3085 -759 0
-3085 759 0
724 -1492 0
-724 1492 0
2773 -1366 0
-2773 1366 0
820 -1691 0
-820 1691 0
1007 -712 0
-1007 712 0
973 -532 0
-973 532 0
1876 -2136 0
-1876 2136 0
383 -797 0
-383 797 0
2027 -2886 0
-2027 2886 0
