p cnf 3191 6786
w 1 0.5
w 2 0.5
w 3 0.5
w 4 -1
w 5 -1
w 6 -1
w 7 -1
w 8 -1
w 9 -1
w 10 -1
w 11 -1
w 12 -1
w 13 -1
w 14 -1
w 15 -1
w 16 -1
w 17 0.36619079410743394
w 18 -1
w 19 -1
w 20 -1
w 21 -1
w 22 -1
w 23 0.4447668271756181
w 24 -1
w 25 -1
w 26 -1
w 27 -1
w 28 -1
w 29 -1
w 30 -1
w 31 0.5
w 32 -1
w 33 0.8704284694221361
w 34 -1
w 35 -1
w 36 -1
w 37 -1
w 38 0.5
w 39 -1
w 40 -1
w 41 0.5
w 42 -1
w 43 -1
w 44 -1
w 45 -1
w 46 -1
w 47 -1
w 48 -1
w 49 -1
w 50 0.5
w 51 -1
w 52 -1
w 53 -1
w 54 -1
w 55 -1
w 56 -1
w 57 -1
w 58 -1
w 59 -1
w 60 -1
w 61 -1
w 62 -1
w 63 -1
w 64 0.5
w 65 -1
w 66 -1
w 67 -1
w 68 -1
w 69 -1
w 70 -1
w 71 -1
w 72 0.5
w 73 -1
w 74 0.5
w 75 -1
w 76 -1
w 77 -1
w 78 0.5
w 79 -1
w 80 -1
w 81 -1
w 82 -1
w 83 -1
w 84 -1
w 85 -1
w 86 -1
w 87 -1
w 88 0.5
w 89 -1
w 90 -1
w 91 -1
w 92 -1
w 93 -1
w 94 -1
w 95 -1
w 96 -1
w 97 -1
w 98 -1
w 99 -1
w 100 -1
w 101 -1
w 102 -1
w 103 -1
w 104 -1
w 105 0.5
w 106 -1
w 107 -1
w 108 0.5
w 109 -1
w 110 -1
w 111 -1
w 112 0.5
w 113 -1
w 114 -1
w 115 -1
w 116 -1
w 117 -1
w 118 -1
w 119 -1
w 120 -1
w 121 -1
w 122 0.5
w 123 -1
w 124 -1
w 125 -1
w 126 -1
w 127 -1
w 128 -1
w 129 -1
w 130 -1
w 131 0.5
w 132 -1
w 133 -1
w 134 -1
w 135 -1
w 136 -1
w 137 0.5
w 138 0.5637826656161112
w 139 -1
w 140 -1
w 141 -1
w 142 -1
w 143 -1
w 144 0.5
w 145 -1
w 146 -1
w 147 -1
w 148 -1
w 149 -1
w 150 -1
w 151 -1
w 152 -1
w 153 -1
w 154 -1
w 155 -1
w 156 -1
w 157 0.5
w 158 -1
w 159 0.5
w 160 -1
w 161 -1
w 162 -1
w 163 0.12632070059382386
w 164 -1
w 165 0.5
w 166 -1
w 167 -1
w 168 -1
w 169 0.8263508160830048
w 170 -1
w 171 -1
w 172 -1
w 173 -1
w 174 -1
w 175 -1
w 176 -1
w 177 -1
w 178 -1
w 179 -1
w 180 -1
w 181 -1
w 182 -1
w 183 0.8480811840636766
w 184 0.5
w 185 -1
w 186 -1
w 187 -1
w 188 -1
w 189 0.5
w 190 -1
w 191 -1
w 192 -1
w 193 -1
w 194 -1
w 195 0.5
w 196 0.5
w 197 0.5
w 198 -1
w 199 -1
w 200 -1
w 201 -1
w 202 -1
w 203 0.5
w 204 -1
w 205 -1
w 206 -1
w 207 -1
w 208 -1
w 209 -1
w 210 -1
w 211 -1
w 212 -1
w 213 -1
w 214 -1
w 215 -1
w 216 -1
w 217 -1
w 218 -1
w 219 -1
w 220 -1
w 221 0.5
w 222 -1
w 223 -1
w 224 0.5
w 225 -1
w 226 0.5
w 227 -1
w 228 0.5
w 229 -1
w 230 -1
w 231 0.5
w 232 -1
w 233 -1
w 234 -1
w 235 -1
w 236 -1
w 237 0.5
w 238 -1
w 239 -1
w 240 -1
w 241 -1
w 242 -1
w 243 0.5
w 244 -1
w 245 -1
w 246 -1
w 247 0.5
w 248 -1
w 249 -1
w 250 -1
w 251 -1
w 252 -1
w 253 -1
w 254 -1
w 255 -1
w 256 -1
w 257 0.625435368241974
w 258 -1
w 259 -1
w 260 -1
w 261 0.5
w 262 -1
w 263 -1
w 264 -1
w 265 0.5
w 266 -1
w 267 -1
w 268 -1
w 269 -1
w 270 -1
w 271 -1
w 272 -1
w 273 -1
w 274 0.5
w 275 -1
w 276 0.5
w 277 -1
w 278 -1
w 279 -1
w 280 0.5
w 281 -1
w 282 -1
w 283 -1
w 284 -1
w 285 -1
w 286 -1
w 287 0.5
w 288 -1
w 289 -1
w 290 0.5
w 291 -1
w 292 -1
w 293 -1
w 294 0.5
w 295 -1
w 296 -1
w 297 -1
w 298 0.5
w 299 -1
w 300 -1
w 301 -1
w 302 -1
w 303 0.5
w 304 -1
w 305 0.5
w 306 0.5
w 307 -1
w 308 -1
w 309 -1
w 310 0.5
w 311 -1
w 312 -1
w 313 -1
w 314 -1
w 315 -1
w 316 -1
w 317 -1
w 318 -1
w 319 -1
w 320 -1
w 321 -1
w 322 0.7800396824006237
w 323 -1
w 324 -1
w 325 -1
w 326 -1
w 327 -1
w 328 -1
w 329 -1
w 330 -1
w 331 -1
w 332 -1
w 333 -1
w 334 -1
w 335 0.7168992599995487
w 336 0.806841649490648
w 337 0.5
w 338 -1
w 339 -1
w 340 -1
w 341 -1
w 342 -1
w 343 -1
w 344 -1
w 345 -1
w 346 -1
w 347 -1
w 348 -1
w 349 -1
w 350 -1
w 351 -1
w 352 -1
w 353 -1
w 354 -1
w 355 -1
w 356 -1
w 357 0.5
w 358 0.5
w 359 -1
w 360 -1
w 361 -1
w 362 0.4115951864977799
w 363 -1
w 364 -1
w 365 -1
w 366 -1
w 367 -1
w 368 -1
w 369 -1
w 370 0.5
w 371 -1
w 372 -1
w 373 -1
w 374 -1
w 375 0.5
w 376 -1
w 377 -1
w 378 -1
w 379 -1
w 380 -1
w 381 -1
w 382 -1
w 383 -1
w 384 -1
w 385 -1
w 386 -1
w 387 0.15593116612050242
w 388 -1
w 389 -1
w 390 -1
w 391 -1
w 392 -1
w 393 -1
w 394 0.5
w 395 -1
w 396 -1
w 397 -1
w 398 -1
w 399 -1
w 400 -1
w 401 -1
w 402 -1
w 403 -1
w 404 -1
w 405 -1
w 406 -1
w 407 -1
w 408 -1
w 409 -1
w 410 -1
w 411 -1
w 412 -1
w 413 -1
w 414 -1
w 415 -1
w 416 -1
w 417 -1
w 418 -1
w 419 -1
w 420 -1
w 421 0.5
w 422 -1
w 423 -1
w 424 -1
w 425 -1
w 426 -1
w 427 -1
w 428 -1
w 429 -1
w 430 -1
w 431 0.5
w 432 -1
w 433 -1
w 434 -1
w 435 -1
w 436 -1
w 437 -1
w 438 -1
w 439 -1
w 440 -1
w 441 -1
w 442 -1
w 443 -1
w 444 -1
w 445 -1
w 446 -1
w 447 -1
w 448 -1
w 449 -1
w 450 -1
w 451 -1
w 452 -1
w 453 -1
w 454 -1
w 455 -1
w 456 0.20749434522788338
w 457 -1
w 458 0.5
w 459 0.5
w 460 -1
w 461 -1
w 462 -1
w 463 -1
w 464 -1
w 465 -1
w 466 -1
w 467 -1
w 468 -1
w 469 -1
w 470 -1
w 471 -1
w 472 -1
w 473 0.5
w 474 -1
w 475 -1
w 476 -1
w 477 -1
w 478 -1
w 479 -1
w 480 -1
w 481 -1
w 482 -1
w 483 -1
w 484 -1
w 485 -1
w 486 -1
w 487 0.7035886284749683
w 488 0.5
w 489 -1
w 490 -1
w 491 -1
w 492 -1
w 493 -1
w 494 -1
w 495 0.4361080838003078
w 496 -1
w 497 -1
w 498 -1
w 499 -1
w 500 0.5
w 501 -1
w 502 -1
w 503 -1
w 504 -1
w 505 -1
w 506 -1
w 507 -1
w 508 -1
w 509 -1
w 510 -1
w 511 -1
w 512 -1
w 513 -1
w 514 -1
w 515 -1
w 516 -1
w 517 -1
w 518 -1
w 519 -1
w 520 0.5
w 521 -1
w 522 -1
w 523 -1
w 524 -1
w 525 -1
w 526 -1
w 527 0.5
w 528 -1
w 529 0.5
w 530 -1
w 531 -1
w 532 -1
w 533 -1
w 534 -1
w 535 0.20583338856189437
w 536 -1
w 537 -1
w 538 -1
w 539 -1
w 540 -1
w 541 -1
w 542 -1
w 543 -1
w 544 -1
w 545 -1
w 546 -1
w 547 -1
w 548 -1
w 549 -1
w 550 0.6907509439476452
w 551 -1
w 552 0.5
w 553 -1
w 554 -1
w 555 -1
w 556 -1
w 557 -1
w 558 -1
w 559 -1
w 560 0.5
w 561 0.5
w 562 -1
w 563 -1
w 564 -1
w 565 -1
w 566 -1
w 567 -1
w 568 0.5
w 569 -1
w 570 0.5
w 571 0.5
w 572 -1
w 573 -1
w 574 -1
w 575 0.5
w 576 -1
w 577 -1
w 578 -1
w 579 -1
w 580 0.5
w 581 -1
w 582 -1
w 583 -1
w 584 0.5
w 585 -1
w 586 -1
w 587 0.5
w 588 -1
w 589 -1
w 590 -1
w 591 -1
w 592 -1
w 593 -1
w 594 -1
w 595 0.5
w 596 -1
w 597 0.2431442064036337
w 598 0.5
w 599 -1
w 600 -1
w 601 -1
w 602 -1
w 603 0.7842868166765031
w 604 -1
w 605 -1
w 606 -1
w 607 -1
w 608 0.5
w 609 0.5
w 610 0.5
w 611 -1
w 612 0.5
w 613 -1
w 614 0.5
w 615 -1
w 616 -1
w 617 -1
w 618 -1
w 619 0.5
w 620 -1
w 621 -1
w 622 -1
w 623 -1
w 624 -1
w 625 -1
w 626 -1
w 627 -1
w 628 -1
w 629 -1
w 630 -1
w 631 -1
w 632 0.5
w 633 0.7147612018335052
w 634 -1
w 635 -1
w 636 0.5
w 637 -1
w 638 -1
w 639 0.5
w 640 0.5
w 641 -1
w 642 -1
w 643 -1
w 644 -1
w 645 -1
w 646 -1
w 647 -1
w 648 -1
w 649 0.5
w 650 0.7484940872015193
w 651 -1
w 652 -1
w 653 0.5
w 654 -1
w 655 -1
w 656 0.5
w 657 -1
w 658 -1
w 659 -1
w 660 -1
w 661 -1
w 662 -1
w 663 -1
w 664 -1
w 665 -1
w 666 -1
w 667 -1
w 668 -1
w 669 -1
w 670 -1
w 671 0.5
w 672 0.5
w 673 -1
w 674 -1
w 675 -1
w 676 -1
w 677 -1
w 678 -1
w 679 -1
w 680 -1
w 681 -1
w 682 -1
w 683 -1
w 684 -1
w 685 -1
w 686 -1
w 687 -1
w 688 -1
w 689 0.5
w 690 0.8576198726172475
w 691 -1
w 692 -1
w 693 -1
w 694 -1
w 695 -1
w 696 -1
w 697 -1
w 698 -1
w 699 -1
w 700 -1
w 701 0.5
w 702 -1
w 703 -1
w 704 -1
w 705 -1
w 706 -1
w 707 -1
w 708 -1
w 709 -1
w 710 -1
w 711 -1
w 712 -1
w 713 -1
w 714 0.5
w 715 -1
w 716 -1
w 717 -1
w 718 0.5
w 719 -1
w 720 -1
w 721 0.5
w 722 -1
w 723 -1
w 724 -1
w 725 -1
w 726 -1
w 727 -1
w 728 -1
w 729 -1
w 730 -1
w 731 -1
w 732 -1
w 733 -1
w 734 -1
w 735 -1
w 736 -1
w 737 -1
w 738 -1
w 739 -1
w 740 -1
w 741 -1
w 742 -1
w 743 -1
w 744 -1
w 745 -1
w 746 -1
w 747 -1
w 748 -1
w 749 -1
w 750 -1
w 751 -1
w 752 0.5
w 753 -1
w 754 -1
w 755 0.5
w 756 -1
w 757 -1
w 758 -1
w 759 -1
w 760 -1
w 761 -1
w 762 -1
w 763 -1
w 764 -1
w 765 0.5
w 766 -1
w 767 0.8102970448744563
w 768 -1
w 769 0.5
w 770 -1
w 771 -1
w 772 -1
w 773 -1
w 774 0.5
w 775 -1
w 776 -1
w 777 -1
w 778 -1
w 779 0.5
w 780 -1
w 781 -1
w 782 0.5
w 783 -1
w 784 -1
w 785 -1
w 786 0.5
w 787 -1
w 788 -1
w 789 -1
w 790 -1
w 791 0.5
w 792 0.5
w 793 0.5
w 794 -1
w 795 -1
w 796 0.5
w 797 -1
w 798 -1
w 799 -1
w 800 -1
w 801 -1
w 802 -1
w 803 0.5
w 804 -1
w 805 -1
w 806 0.5
w 807 -1
w 808 -1
w 809 -1
w 810 -1
w 811 -1
w 812 -1
w 813 -1
w 814 0.5
w 815 -1
w 816 -1
w 817 -1
w 818 -1
w 819 -1
w 820 -1
w 821 -1
w 822 0.5
w 823 -1
w 824 -1
w 825 -1
w 826 -1
w 827 -1
w 828 -1
w 829 -1
w 830 -1
w 831 -1
w 832 -1
w 833 -1
w 834 -1
w 835 -1
w 836 -1
w 837 -1
w 838 -1
w 839 -1
w 840 -1
w 841 -1
w 842 -1
w 843 -1
w 844 0.5
w 845 -1
w 846 -1
w 847 -1
w 848 -1
w 849 -1
w 850 -1
w 851 -1
w 852 -1
w 853 0.5
w 854 0.5
w 855 0.5
w 856 -1
w 857 -1
w 858 -1
w 859 -1
w 860 -1
w 861 -1
w 862 -1
w 863 0.5
w 864 -1
w 865 -1
w 866 -1
w 867 -1
w 868 -1
w 869 0.5
w 870 -1
w 871 -1
w 872 -1
w 873 0.5
w 874 -1
w 875 -1
w 876 -1
w 877 -1
w 878 -1
w 879 -1
w 880 -1
w 881 -1
w 882 -1
w 883 -1
w 884 -1
w 885 -1
w 886 -1
w 887 -1
w 888 -1
w 889 -1
w 890 -1
w 891 -1
w 892 -1
w 893 0.5
w 894 -1
w 895 -1
w 896 -1
w 897 -1
w 898 0.5
w 899 -1
w 900 -1
w 901 -1
w 902 -1
w 903 -1
w 904 -1
w 905 -1
w 906 -1
w 907 -1
w 908 -1
w 909 -1
w 910 0.8726830377190898
w 911 -1
w 912 -1
w 913 -1
w 914 0.5
w 915 -1
w 916 -1
w 917 -1
w 918 -1
w 919 -1
w 920 -1
w 921 -1
w 922 0.5
w 923 -1
w 924 -1
w 925 -1
w 926 -1
w 927 0.5
w 928 -1
w 929 -1
w 930 -1
w 931 -1
w 932 -1
w 933 -1
w 934 -1
w 935 -1
w 936 -1
w 937 -1
w 938 -1
w 939 -1
w 940 -1
w 941 -1
w 942 0.31782275362962514
w 943 -1
w 944 -1
w 945 -1
w 946 -1
w 947 -1
w 948 0.5
w 949 -1
w 950 -1
w 951 -1
w 952 -1
w 953 -1
w 954 0.20643864072552173
w 955 -1
w 956 -1
w 957 -1
w 958 -1
w 959 -1
w 960 -1
w 961 -1
w 962 -1
w 963 -1
w 964 -1
w 965 -1
w 966 -1
w 967 -1
w 968 -1
w 969 -1
w 970 -1
w 971 -1
w 972 -1
w 973 -1
w 974 -1
w 975 -1
w 976 -1
w 977 0.15691935490183015
w 978 -1
w 979 -1
w 980 -1
w 981 -1
w 982 -1
w 983 -1
w 984 -1
w 985 -1
w 986 -1
w 987 -1
w 988 -1
w 989 -1
w 990 -1
w 991 0.5
w 992 -1
w 993 -1
w 994 -1
w 995 -1
w 996 -1
w 997 -1
w 998 0.5
w 999 -1
w 1000 -1
w 1001 -1
w 1002 -1
w 1003 -1
w 1004 -1
w 1005 -1
w 1006 0.5
w 1007 -1
w 1008 -1
w 1009 -1
w 1010 -1
w 1011 -1
w 1012 -1
w 1013 0.5
w 1014 -1
w 1015 0.5
w 1016 -1
w 1017 -1
w 1018 0.7752293876761236
w 1019 -1
w 1020 -1
w 1021 -1
w 1022 -1
w 1023 -1
w 1024 -1
w 1025 -1
w 1026 -1
w 1027 -1
w 1028 -1
w 1029 -1
w 1030 -1
w 1031 -1
w 1032 -1
w 1033 -1
w 1034 -1
w 1035 -1
w 1036 -1
w 1037 -1
w 1038 -1
w 1039 -1
w 1040 -1
w 1041 0.5
w 1042 0.5
w 1043 -1
w 1044 -1
w 1045 0.5
w 1046 -1
w 1047 0.5
w 1048 -1
w 1049 0.48254471838478935
w 1050 0.5
w 1051 -1
w 1052 0.5
w 1053 -1
w 1054 -1
w 1055 -1
w 1056 0.5
w 1057 -1
w 1058 -1
w 1059 0.5
w 1060 -1
w 1061 -1
w 1062 -1
w 1063 -1
w 1064 -1
w 1065 -1
w 1066 -1
w 1067 -1
w 1068 -1
w 1069 -1
w 1070 -1
w 1071 -1
w 1072 -1
w 1073 -1
w 1074 -1
w 1075 -1
w 1076 -1
w 1077 -1
w 1078 -1
w 1079 -1
w 1080 -1
w 1081 -1
w 1082 -1
w 1083 0.5
w 1084 -1
w 1085 -1
w 1086 -1
w 1087 -1
w 1088 -1
w 1089 -1
w 1090 -1
w 1091 0.18531928494609365
w 1092 -1
w 1093 -1
w 1094 0.5
w 1095 -1
w 1096 -1
w 1097 0.5
w 1098 -1
w 1099 -1
w 1100 -1
w 1101 0.5
w 1102 -1
w 1103 -1
w 1104 -1
w 1105 0.5
w 1106 -1
w 1107 -1
w 1108 -1
w 1109 -1
w 1110 -1
w 1111 -1
w 1112 -1
w 1113 -1
w 1114 -1
w 1115 0.5
w 1116 -1
w 1117 -1
w 1118 0.5
w 1119 -1
w 1120 -1
w 1121 -1
w 1122 -1
w 1123 -1
w 1124 -1
w 1125 -1
w 1126 -1
w 1127 -1
w 1128 -1
w 1129 -1
w 1130 -1
w 1131 -1
w 1132 -1
w 1133 -1
w 1134 -1
w 1135 -1
w 1136 -1
w 1137 -1
w 1138 0.5
w 1139 -1
w 1140 -1
w 1141 -1
w 1142 -1
w 1143 -1
w 1144 -1
w 1145 -1
w 1146 -1
w 1147 -1
w 1148 -1
w 1149 -1
w 1150 -1
w 1151 -1
w 1152 -1
w 1153 -1
w 1154 -1
w 1155 -1
w 1156 -1
w 1157 -1
w 1158 -1
w 1159 -1
w 1160 -1
w 1161 0.5
w 1162 -1
w 1163 -1
w 1164 -1
w 1165 -1
w 1166 -1
w 1167 -1
w 1168 -1
w 1169 -1
w 1170 -1
w 1171 -1
w 1172 -1
w 1173 -1
w 1174 -1
w 1175 -1
w 1176 -1
w 1177 0.5
w 1178 -1
w 1179 -1
w 1180 0.5
w 1181 -1
w 1182 -1
w 1183 -1
w 1184 -1
w 1185 -1
w 1186 -1
w 1187 -1
w 1188 -1
w 1189 0.5
w 1190 -1
w 1191 -1
w 1192 -1
w 1193 0.498036829284291
w 1194 -1
w 1195 0.5
w 1196 -1
w 1197 -1
w 1198 -1
w 1199 -1
w 1200 -1
w 1201 -1
w 1202 -1
w 1203 -1
w 1204 -1
w 1205 -1
w 1206 0.7009811797887302
w 1207 -1
w 1208 -1
w 1209 0.24426559753196264
w 1210 -1
w 1211 0.5
w 1212 -1
w 1213 -1
w 1214 -1
w 1215 -1
w 1216 -1
w 1217 -1
w 1218 0.5
w 1219 -1
w 1220 -1
w 1221 0.5
w 1222 -1
w 1223 -1
w 1224 -1
w 1225 0.5
w 1226 -1
w 1227 -1
w 1228 -1
w 1229 -1
w 1230 -1
w 1231 0.5
w 1232 0.6997163049910777
w 1233 -1
w 1234 -1
w 1235 -1
w 1236 -1
w 1237 -1
w 1238 -1
w 1239 -1
w 1240 -1
w 1241 -1
w 1242 -1
w 1243 0.5
w 1244 -1
w 1245 -1
w 1246 -1
w 1247 -1
w 1248 -1
w 1249 -1
w 1250 -1
w 1251 -1
w 1252 -1
w 1253 -1
w 1254 -1
w 1255 -1
w 1256 -1
w 1257 -1
w 1258 -1
w 1259 -1
w 1260 -1
w 1261 -1
w 1262 -1
w 1263 -1
w 1264 -1
w 1265 -1
w 1266 -1
w 1267 0.5
w 1268 -1
w 1269 -1
w 1270 -1
w 1271 -1
w 1272 -1
w 1273 -1
w 1274 -1
w 1275 -1
w 1276 -1
w 1277 -1
w 1278 -1
w 1279 -1
w 1280 -1
w 1281 -1
w 1282 -1
w 1283 -1
w 1284 -1
w 1285 -1
w 1286 0.5
w 1287 -1
w 1288 -1
w 1289 -1
w 1290 -1
w 1291 0.5
w 1292 -1
w 1293 -1
w 1294 -1
w 1295 -1
w 1296 -1
w 1297 -1
w 1298 -1
w 1299 -1
w 1300 -1
w 1301 -1
w 1302 -1
w 1303 0.5
w 1304 -1
w 1305 -1
w 1306 -1
w 1307 -1
w 1308 -1
w 1309 -1
w 1310 -1
w 1311 -1
w 1312 -1
w 1313 0.2840330683299745
w 1314 -1
w 1315 -1
w 1316 0.5
w 1317 -1
w 1318 -1
w 1319 -1
w 1320 0.5
w 1321 -1
w 1322 -1
w 1323 -1
w 1324 -1
w 1325 -1
w 1326 0.5
w 1327 -1
w 1328 -1
w 1329 -1
w 1330 0.5
w 1331 -1
w 1332 0.5
w 1333 -1
w 1334 -1
w 1335 -1
w 1336 -1
w 1337 -1
w 1338 -1
w 1339 -1
w 1340 -1
w 1341 -1
w 1342 -1
w 1343 -1
w 1344 0.5
w 1345 -1
w 1346 -1
w 1347 -1
w 1348 0.5
w 1349 -1
w 1350 -1
w 1351 -1
w 1352 0.5
w 1353 -1
w 1354 -1
w 1355 -1
w 1356 0.5
w 1357 -1
w 1358 -1
w 1359 -1
w 1360 -1
w 1361 -1
w 1362 -1
w 1363 -1
w 1364 -1
w 1365 -1
w 1366 -1
w 1367 -1
w 1368 -1
w 1369 -1
w 1370 -1
w 1371 -1
w 1372 -1
w 1373 0.5
w 1374 -1
w 1375 -1
w 1376 -1
w 1377 -1
w 1378 -1
w 1379 -1
w 1380 -1
w 1381 -1
w 1382 0.5
w 1383 -1
w 1384 -1
w 1385 -1
w 1386 -1
w 1387 -1
w 1388 -1
w 1389 -1
w 1390 -1
w 1391 -1
w 1392 -1
w 1393 -1
w 1394 -1
w 1395 -1
w 1396 -1
w 1397 -1
w 1398 -1
w 1399 -1
w 1400 0.5
w 1401 0.43490102871010167
w 1402 -1
w 1403 -1
w 1404 -1
w 1405 -1
w 1406 0.5
w 1407 0.5
w 1408 -1
w 1409 -1
w 1410 -1
w 1411 -1
w 1412 -1
w 1413 -1
w 1414 -1
w 1415 -1
w 1416 -1
w 1417 -1
w 1418 -1
w 1419 -1
w 1420 -1
w 1421 -1
w 1422 -1
w 1423 0.791653929374178
w 1424 -1
w 1425 -1
w 1426 -1
w 1427 -1
w 1428 -1
w 1429 -1
w 1430 -1
w 1431 -1
w 1432 -1
w 1433 -1
w 1434 -1
w 1435 0.5
w 1436 -1
w 1437 -1
w 1438 -1
w 1439 -1
w 1440 -1
w 1441 -1
w 1442 -1
w 1443 -1
w 1444 0.5
w 1445 0.864928924104838
w 1446 0.5
w 1447 -1
w 1448 0.5
w 1449 -1
w 1450 -1
w 1451 -1
w 1452 -1
w 1453 -1
w 1454 -1
w 1455 -1
w 1456 0.5
w 1457 -1
w 1458 -1
w 1459 -1
w 1460 -1
w 1461 -1
w 1462 -1
w 1463 -1
w 1464 -1
w 1465 0.5
w 1466 -1
w 1467 -1
w 1468 -1
w 1469 -1
w 1470 -1
w 1471 -1
w 1472 -1
w 1473 -1
w 1474 -1
w 1475 -1
w 1476 -1
w 1477 -1
w 1478 -1
w 1479 0.5
w 1480 -1
w 1481 -1
w 1482 0.5
w 1483 -1
w 1484 -1
w 1485 -1
w 1486 -1
w 1487 0.21291595845087571
w 1488 -1
w 1489 0.5
w 1490 -1
w 1491 -1
w 1492 -1
w 1493 -1
w 1494 -1
w 1495 -1
w 1496 -1
w 1497 -1
w 1498 -1
w 1499 -1
w 1500 -1
w 1501 -1
w 1502 -1
w 1503 -1
w 1504 -1
w 1505 -1
w 1506 -1
w 1507 -1
w 1508 -1
w 1509 0.5
w 1510 -1
w 1511 -1
w 1512 -1
w 1513 -1
w 1514 -1
w 1515 -1
w 1516 -1
w 1517 -1
w 1518 -1
w 1519 -1
w 1520 0.5
w 1521 -1
w 1522 -1
w 1523 -1
w 1524 0.5
w 1525 -1
w 1526 -1
w 1527 -1
w 1528 -1
w 1529 -1
w 1530 -1
w 1531 -1
w 1532 -1
w 1533 0.3682305331929581
w 1534 -1
w 1535 -1
w 1536 -1
w 1537 -1
w 1538 -1
w 1539 -1
w 1540 -1
w 1541 0.5
w 1542 -1
w 1543 -1
w 1544 0.5
w 1545 -1
w 1546 -1
w 1547 0.5
w 1548 0.5
w 1549 -1
w 1550 -1
w 1551 -1
w 1552 -1
w 1553 -1
w 1554 -1
w 1555 -1
w 1556 0.5792951829735943
w 1557 -1
w 1558 -1
w 1559 -1
w 1560 -1
w 1561 -1
w 1562 -1
w 1563 -1
w 1564 -1
w 1565 -1
w 1566 -1
w 1567 0.5
w 1568 -1
w 1569 -1
w 1570 -1
w 1571 -1
w 1572 -1
w 1573 -1
w 1574 -1
w 1575 -1
w 1576 -1
w 1577 -1
w 1578 -1
w 1579 -1
w 1580 -1
w 1581 -1
w 1582 -1
w 1583 0.5
w 1584 -1
w 1585 -1
w 1586 -1
w 1587 -1
w 1588 -1
w 1589 -1
w 1590 -1
w 1591 -1
w 1592 -1
w 1593 -1
w 1594 -1
w 1595 -1
w 1596 -1
w 1597 -1
w 1598 -1
w 1599 -1
w 1600 -1
w 1601 -1
w 1602 -1
w 1603 0.5
w 1604 -1
w 1605 -1
w 1606 -1
w 1607 -1
w 1608 -1
w 1609 -1
w 1610 -1
w 1611 -1
w 1612 0.5
w 1613 -1
w 1614 0.5
w 1615 -1
w 1616 -1
w 1617 -1
w 1618 -1
w 1619 -1
w 1620 -1
w 1621 0.5
w 1622 -1
w 1623 -1
w 1624 0.5
w 1625 -1
w 1626 -1
w 1627 -1
w 1628 -1
w 1629 -1
w 1630 0.5
w 1631 -1
w 1632 -1
w 1633 -1
w 1634 -1
w 1635 -1
w 1636 -1
w 1637 -1
w 1638 -1
w 1639 -1
w 1640 -1
w 1641 -1
w 1642 0.5
w 1643 -1
w 1644 0.5
w 1645 -1
w 1646 -1
w 1647 -1
w 1648 -1
w 1649 -1
w 1650 -1
w 1651 -1
w 1652 -1
w 1653 -1
w 1654 -1
w 1655 0.5
w 1656 -1
w 1657 -1
w 1658 0.5
w 1659 -1
w 1660 -1
w 1661 -1
w 1662 0.5
w 1663 -1
w 1664 -1
w 1665 -1
w 1666 -1
w 1667 -1
w 1668 -1
w 1669 -1
w 1670 -1
w 1671 -1
w 1672 -1
w 1673 0.5
w 1674 -1
w 1675 -1
w 1676 0.5
w 1677 -1
w 1678 -1
w 1679 -1
w 1680 0.5
w 1681 -1
w 1682 -1
w 1683 -1
w 1684 -1
w 1685 -1
w 1686 -1
w 1687 -1
w 1688 -1
w 1689 -1
w 1690 0.5
w 1691 -1
w 1692 -1
w 1693 -1
w 1694 0.5
w 1695 -1
w 1696 -1
w 1697 -1
w 1698 0.5
w 1699 -1
w 1700 -1
w 1701 -1
w 1702 -1
w 1703 -1
w 1704 -1
w 1705 0.5
w 1706 -1
w 1707 -1
w 1708 0.5
w 1709 -1
w 1710 -1
w 1711 -1
w 1712 -1
w 1713 -1
w 1714 -1
w 1715 -1
w 1716 -1
w 1717 -1
w 1718 0.5
w 1719 -1
w 1720 -1
w 1721 -1
w 1722 -1
w 1723 -1
w 1724 -1
w 1725 0.5
w 1726 -1
w 1727 -1
w 1728 -1
w 1729 -1
w 1730 -1
w 1731 -1
w 1732 -1
w 1733 -1
w 1734 0.5
w 1735 0.5
w 1736 -1
w 1737 0.5
w 1738 -1
w 1739 -1
w 1740 -1
w 1741 0.7739666675671011
w 1742 -1
w 1743 -1
w 1744 -1
w 1745 -1
w 1746 -1
w 1747 -1
w 1748 -1
w 1749 -1
w 1750 -1
w 1751 -1
w 1752 -1
w 1753 -1
w 1754 0.5
w 1755 -1
w 1756 -1
w 1757 -1
w 1758 0.5
w 1759 -1
w 1760 -1
w 1761 -1
w 1762 -1
w 1763 -1
w 1764 -1
w 1765 -1
w 1766 0.6601086764935576
w 1767 -1
w 1768 -1
w 1769 -1
w 1770 -1
w 1771 -1
w 1772 0.5
w 1773 -1
w 1774 -1
w 1775 -1
w 1776 -1
w 1777 -1
w 1778 -1
w 1779 -1
w 1780 -1
w 1781 -1
w 1782 -1
w 1783 -1
w 1784 -1
w 1785 -1
w 1786 -1
w 1787 0.6601201358313663
w 1788 0.5
w 1789 -1
w 1790 -1
w 1791 -1
w 1792 -1
w 1793 0.5
w 1794 -1
w 1795 -1
w 1796 -1
w 1797 -1
w 1798 -1
w 1799 -1
w 1800 -1
w 1801 -1
w 1802 -1
w 1803 -1
w 1804 -1
w 1805 -1
w 1806 -1
w 1807 0.5
w 1808 -1
w 1809 -1
w 1810 -1
w 1811 -1
w 1812 -1
w 1813 -1
w 1814 -1
w 1815 -1
w 1816 -1
w 1817 -1
w 1818 -1
w 1819 -1
w 1820 -1
w 1821 -1
w 1822 -1
w 1823 0.2583202703375056
w 1824 -1
w 1825 -1
w 1826 0.5
w 1827 0.5
w 1828 -1
w 1829 0.5
w 1830 -1
w 1831 -1
w 1832 -1
w 1833 -1
w 1834 -1
w 1835 -1
w 1836 0.5
w 1837 -1
w 1838 -1
w 1839 -1
w 1840 -1
w 1841 -1
w 1842 -1
w 1843 0.7254888916293456
w 1844 -1
w 1845 -1
w 1846 -1
w 1847 -1
w 1848 -1
w 1849 0.5
w 1850 -1
w 1851 -1
w 1852 -1
w 1853 -1
w 1854 0.5
w 1855 0.5
w 1856 0.1392697689251231
w 1857 -1
w 1858 -1
w 1859 -1
w 1860 -1
w 1861 0.5
w 1862 -1
w 1863 -1
w 1864 -1
w 1865 -1
w 1866 -1
w 1867 -1
w 1868 -1
w 1869 -1
w 1870 -1
w 1871 -1
w 1872 -1
w 1873 0.5
w 1874 -1
w 1875 -1
w 1876 -1
w 1877 -1
w 1878 0.5
w 1879 -1
w 1880 -1
w 1881 -1
w 1882 -1
w 1883 -1
w 1884 0.5
w 1885 -1
w 1886 0.5
w 1887 -1
w 1888 -1
w 1889 -1
w 1890 -1
w 1891 0.19786870357032577
w 1892 -1
w 1893 -1
w 1894 -1
w 1895 -1
w 1896 -1
w 1897 0.7509627180952648
w 1898 -1
w 1899 -1
w 1900 -1
w 1901 -1
w 1902 -1
w 1903 -1
w 1904 -1
w 1905 -1
w 1906 -1
w 1907 -1
w 1908 -1
w 1909 -1
w 1910 -1
w 1911 -1
w 1912 -1
w 1913 -1
w 1914 -1
w 1915 0.7372654911778262
w 1916 0.5
w 1917 -1
w 1918 -1
w 1919 -1
w 1920 -1
w 1921 -1
w 1922 -1
w 1923 0.5
w 1924 -1
w 1925 0.5
w 1926 -1
w 1927 -1
w 1928 -1
w 1929 -1
w 1930 -1
w 1931 -1
w 1932 0.5
w 1933 -1
w 1934 -1
w 1935 -1
w 1936 -1
w 1937 -1
w 1938 -1
w 1939 -1
w 1940 -1
w 1941 -1
w 1942 -1
w 1943 -1
w 1944 -1
w 1945 -1
w 1946 -1
w 1947 -1
w 1948 -1
w 1949 -1
w 1950 -1
w 1951 -1
w 1952 -1
w 1953 -1
w 1954 -1
w 1955 -1
w 1956 0.5808644985506788
w 1957 -1
w 1958 -1
w 1959 -1
w 1960 0.5
w 1961 -1
w 1962 -1
w 1963 -1
w 1964 -1
w 1965 -1
w 1966 -1
w 1967 -1
w 1968 -1
w 1969 0.5
w 1970 -1
w 1971 -1
w 1972 -1
w 1973 0.5
w 1974 0.38157167358165234
w 1975 -1
w 1976 -1
w 1977 -1
w 1978 -1
w 1979 -1
w 1980 -1
w 1981 -1
w 1982 0.35318140087854133
w 1983 0.5
w 1984 -1
w 1985 -1
w 1986 -1
w 1987 -1
w 1988 -1
w 1989 -1
w 1990 -1
w 1991 -1
w 1992 -1
w 1993 -1
w 1994 -1
w 1995 -1
w 1996 -1
w 1997 -1
w 1998 -1
w 1999 -1
w 2000 0.5
w 2001 -1
w 2002 -1
w 2003 -1
w 2004 -1
w 2005 -1
w 2006 0.22315365873438675
w 2007 0.5
w 2008 -1
w 2009 -1
w 2010 -1
w 2011 -1
w 2012 -1
w 2013 0.5623356504436765
w 2014 -1
w 2015 -1
w 2016 -1
w 2017 -1
w 2018 -1
w 2019 0.5
w 2020 -1
w 2021 0.8769537380817941
w 2022 -1
w 2023 -1
w 2024 0.5
w 2025 -1
w 2026 -1
w 2027 0.5
w 2028 -1
w 2029 -1
w 2030 -1
w 2031 -1
w 2032 -1
w 2033 -1
w 2034 -1
w 2035 -1
w 2036 -1
w 2037 -1
w 2038 -1
w 2039 -1
w 2040 -1
w 2041 -1
w 2042 0.21777914792968497
w 2043 -1
w 2044 -1
w 2045 -1
w 2046 -1
w 2047 -1
w 2048 -1
w 2049 -1
w 2050 -1
w 2051 -1
w 2052 -1
w 2053 -1
w 2054 -1
w 2055 -1
w 2056 -1
w 2057 -1
w 2058 -1
w 2059 0.5
w 2060 0.5
w 2061 -1
w 2062 0.7166743849455678
w 2063 -1
w 2064 -1
w 2065 -1
w 2066 -1
w 2067 0.5
w 2068 -1
w 2069 -1
w 2070 -1
w 2071 -1
w 2072 -1
w 2073 -1
w 2074 -1
w 2075 -1
w 2076 -1
w 2077 -1
w 2078 -1
w 2079 0.5
w 2080 0.5
w 2081 0.5
w 2082 -1
w 2083 -1
w 2084 -1
w 2085 -1
w 2086 -1
w 2087 -1
w 2088 0.5
w 2089 -1
w 2090 -1
w 2091 -1
w 2092 -1
w 2093 -1
w 2094 -1
w 2095 0.5
w 2096 -1
w 2097 -1
w 2098 -1
w 2099 -1
w 2100 -1
w 2101 -1
w 2102 -1
w 2103 -1
w 2104 0.3526945061372132
w 2105 -1
w 2106 -1
w 2107 -1
w 2108 -1
w 2109 -1
w 2110 -1
w 2111 -1
w 2112 -1
w 2113 -1
w 2114 0.5
w 2115 -1
w 2116 -1
w 2117 -1
w 2118 -1
w 2119 -1
w 2120 -1
w 2121 -1
w 2122 -1
w 2123 -1
w 2124 -1
w 2125 0.5
w 2126 0.4647048768139062
w 2127 -1
w 2128 0.5
w 2129 -1
w 2130 -1
w 2131 0.5
w 2132 -1
w 2133 -1
w 2134 -1
w 2135 -1
w 2136 -1
w 2137 -1
w 2138 -1
w 2139 0.5
w 2140 -1
w 2141 -1
w 2142 -1
w 2143 -1
w 2144 -1
w 2145 -1
w 2146 -1
w 2147 -1
w 2148 -1
w 2149 -1
w 2150 -1
w 2151 -1
w 2152 -1
w 2153 0.42887931312842525
w 2154 -1
w 2155 -1
w 2156 -1
w 2157 -1
w 2158 -1
w 2159 -1
w 2160 -1
w 2161 -1
w 2162 0.5
w 2163 -1
w 2164 -1
w 2165 0.5
w 2166 -1
w 2167 -1
w 2168 0.5
w 2169 -1
w 2170 -1
w 2171 -1
w 2172 -1
w 2173 -1
w 2174 -1
w 2175 -1
w 2176 -1
w 2177 -1
w 2178 -1
w 2179 -1
w 2180 -1
w 2181 0.5
w 2182 -1
w 2183 -1
w 2184 -1
w 2185 -1
w 2186 -1
w 2187 -1
w 2188 -1
w 2189 0.34507580458616166
w 2190 -1
w 2191 -1
w 2192 0.5
w 2193 0.8752429625942721
w 2194 -1
w 2195 -1
w 2196 0.5
w 2197 -1
w 2198 -1
w 2199 -1
w 2200 0.5
w 2201 -1
w 2202 0.5
w 2203 -1
w 2204 -1
w 2205 0.7061750749449267
w 2206 0.5
w 2207 0.5
w 2208 -1
w 2209 -1
w 2210 -1
w 2211 -1
w 2212 -1
w 2213 0.5168571264408889
w 2214 0.2612114696399467
w 2215 0.5
w 2216 -1
w 2217 -1
w 2218 -1
w 2219 -1
w 2220 -1
w 2221 -1
w 2222 -1
w 2223 -1
w 2224 -1
w 2225 -1
w 2226 -1
w 2227 -1
w 2228 -1
w 2229 0.5
w 2230 -1
w 2231 -1
w 2232 -1
w 2233 -1
w 2234 -1
w 2235 -1
w 2236 -1
w 2237 -1
w 2238 -1
w 2239 0.2366803735229638
w 2240 -1
w 2241 -1
w 2242 -1
w 2243 -1
w 2244 -1
w 2245 0.5
w 2246 -1
w 2247 -1
w 2248 -1
w 2249 -1
w 2250 -1
w 2251 -1
w 2252 -1
w 2253 -1
w 2254 -1
w 2255 -1
w 2256 -1
w 2257 0.5
w 2258 -1
w 2259 -1
w 2260 -1
w 2261 -1
w 2262 -1
w 2263 -1
w 2264 -1
w 2265 -1
w 2266 0.7410136953993657
w 2267 -1
w 2268 -1
w 2269 -1
w 2270 0.5
w 2271 0.5
w 2272 -1
w 2273 -1
w 2274 -1
w 2275 0.30385907176761473
w 2276 -1
w 2277 -1
w 2278 -1
w 2279 -1
w 2280 0.5
w 2281 -1
w 2282 -1
w 2283 -1
w 2284 -1
w 2285 -1
w 2286 -1
w 2287 -1
w 2288 -1
w 2289 -1
w 2290 -1
w 2291 -1
w 2292 -1
w 2293 -1
w 2294 -1
w 2295 0.5
w 2296 -1
w 2297 -1
w 2298 0.5
w 2299 -1
w 2300 -1
w 2301 -1
w 2302 -1
w 2303 -1
w 2304 -1
w 2305 -1
w 2306 0.5
w 2307 -1
w 2308 -1
w 2309 -1
w 2310 -1
w 2311 -1
w 2312 -1
w 2313 -1
w 2314 -1
w 2315 -1
w 2316 -1
w 2317 -1
w 2318 -1
w 2319 -1
w 2320 -1
w 2321 -1
w 2322 -1
w 2323 0.5
w 2324 0.5
w 2325 -1
w 2326 -1
w 2327 -1
w 2328 -1
w 2329 -1
w 2330 -1
w 2331 -1
w 2332 -1
w 2333 -1
w 2334 0.5
w 2335 -1
w 2336 -1
w 2337 -1
w 2338 -1
w 2339 -1
w 2340 0.5
w 2341 -1
w 2342 -1
w 2343 -1
w 2344 -1
w 2345 -1
w 2346 -1
w 2347 -1
w 2348 -1
w 2349 -1
w 2350 0.5
w 2351 -1
w 2352 -1
w 2353 -1
w 2354 -1
w 2355 0.5
w 2356 -1
w 2357 -1
w 2358 -1
w 2359 -1
w 2360 -1
w 2361 -1
w 2362 -1
w 2363 -1
w 2364 0.5
w 2365 0.5
w 2366 -1
w 2367 -1
w 2368 -1
w 2369 -1
w 2370 -1
w 2371 0.5
w 2372 0.5
w 2373 -1
w 2374 -1
w 2375 -1
w 2376 -1
w 2377 -1
w 2378 -1
w 2379 -1
w 2380 -1
w 2381 -1
w 2382 -1
w 2383 -1
w 2384 0.5
w 2385 -1
w 2386 -1
w 2387 -1
w 2388 -1
w 2389 0.5
w 2390 -1
w 2391 -1
w 2392 -1
w 2393 -1
w 2394 0.5
w 2395 0.5
w 2396 -1
w 2397 -1
w 2398 -1
w 2399 -1
w 2400 -1
w 2401 -1
w 2402 -1
w 2403 -1
w 2404 -1
w 2405 -1
w 2406 -1
w 2407 -1
w 2408 -1
w 2409 -1
w 2410 -1
w 2411 -1
w 2412 -1
w 2413 0.6531721809369552
w 2414 -1
w 2415 -1
w 2416 -1
w 2417 0.5
w 2418 -1
w 2419 -1
w 2420 -1
w 2421 -1
w 2422 0.5
w 2423 0.5
w 2424 -1
w 2425 -1
w 2426 -1
w 2427 -1
w 2428 0.5
w 2429 -1
w 2430 -1
w 2431 -1
w 2432 -1
w 2433 -1
w 2434 0.5
w 2435 -1
w 2436 -1
w 2437 0.5
w 2438 -1
w 2439 0.5
w 2440 -1
w 2441 -1
w 2442 -1
w 2443 -1
w 2444 -1
w 2445 -1
w 2446 -1
w 2447 -1
w 2448 0.4820932856629589
w 2449 -1
w 2450 -1
w 2451 -1
w 2452 -1
w 2453 -1
w 2454 -1
w 2455 -1
w 2456 -1
w 2457 -1
w 2458 -1
w 2459 0.5
w 2460 0.5
w 2461 0.5
w 2462 -1
w 2463 -1
w 2464 0.5
w 2465 -1
w 2466 -1
w 2467 -1
w 2468 -1
w 2469 -1
w 2470 0.5
w 2471 -1
w 2472 -1
w 2473 -1
w 2474 -1
w 2475 -1
w 2476 -1
w 2477 -1
w 2478 -1
w 2479 -1
w 2480 0.5
w 2481 -1
w 2482 -1
w 2483 0.5
w 2484 -1
w 2485 -1
w 2486 -1
w 2487 0.5
w 2488 -1
w 2489 -1
w 2490 -1
w 2491 -1
w 2492 0.5
w 2493 0.1498779073774855
w 2494 0.5
w 2495 -1
w 2496 -1
w 2497 0.5
w 2498 -1
w 2499 -1
w 2500 0.5
w 2501 -1
w 2502 -1
w 2503 -1
w 2504 0.5
w 2505 -1
w 2506 -1
w 2507 -1
w 2508 -1
w 2509 -1
w 2510 -1
w 2511 -1
w 2512 0.5
w 2513 -1
w 2514 -1
w 2515 -1
w 2516 -1
w 2517 -1
w 2518 -1
w 2519 -1
w 2520 0.5
w 2521 -1
w 2522 -1
w 2523 -1
w 2524 -1
w 2525 -1
w 2526 -1
w 2527 0.5
w 2528 -1
w 2529 -1
w 2530 -1
w 2531 -1
w 2532 -1
w 2533 -1
w 2534 -1
w 2535 -1
w 2536 -1
w 2537 -1
w 2538 -1
w 2539 -1
w 2540 -1
w 2541 -1
w 2542 -1
w 2543 -1
w 2544 -1
w 2545 0.1746521375361527
w 2546 -1
w 2547 -1
w 2548 -1
w 2549 -1
w 2550 -1
w 2551 -1
w 2552 -1
w 2553 -1
w 2554 -1
w 2555 -1
w 2556 -1
w 2557 -1
w 2558 -1
w 2559 -1
w 2560 -1
w 2561 -1
w 2562 -1
w 2563 -1
w 2564 0.5
w 2565 -1
w 2566 -1
w 2567 -1
w 2568 -1
w 2569 0.5
w 2570 -1
w 2571 0.5
w 2572 -1
w 2573 0.5
w 2574 -1
w 2575 0.5
w 2576 -1
w 2577 -1
w 2578 -1
w 2579 -1
w 2580 -1
w 2581 0.7568080889278078
w 2582 -1
w 2583 -1
w 2584 -1
w 2585 -1
w 2586 -1
w 2587 -1
w 2588 -1
w 2589 -1
w 2590 -1
w 2591 -1
w 2592 -1
w 2593 -1
w 2594 -1
w 2595 0.5
w 2596 -1
w 2597 -1
w 2598 -1
w 2599 0.5
w 2600 -1
w 2601 -1
w 2602 -1
w 2603 -1
w 2604 -1
w 2605 -1
w 2606 0.5
w 2607 0.2479904656818814
w 2608 -1
w 2609 -1
w 2610 -1
w 2611 -1
w 2612 0.5
w 2613 -1
w 2614 -1
w 2615 -1
w 2616 -1
w 2617 0.5
w 2618 -1
w 2619 -1
w 2620 0.5
w 2621 -1
w 2622 -1
w 2623 -1
w 2624 -1
w 2625 -1
w 2626 -1
w 2627 0.5
w 2628 0.5
w 2629 -1
w 2630 -1
w 2631 0.5
w 2632 -1
w 2633 -1
w 2634 -1
w 2635 -1
w 2636 -1
w 2637 -1
w 2638 -1
w 2639 0.1819983259734078
w 2640 -1
w 2641 -1
w 2642 -1
w 2643 0.5
w 2644 -1
w 2645 -1
w 2646 -1
w 2647 -1
w 2648 -1
w 2649 -1
w 2650 -1
w 2651 -1
w 2652 -1
w 2653 -1
w 2654 -1
w 2655 0.24254289489138406
w 2656 -1
w 2657 -1
w 2658 -1
w 2659 -1
w 2660 -1
w 2661 -1
w 2662 -1
w 2663 0.7266164302139807
w 2664 -1
w 2665 0.5
w 2666 -1
w 2667 -1
w 2668 -1
w 2669 -1
w 2670 0.5
w 2671 -1
w 2672 -1
w 2673 -1
w 2674 0.5
w 2675 0.5
w 2676 -1
w 2677 -1
w 2678 0.5
w 2679 -1
w 2680 -1
w 2681 -1
w 2682 -1
w 2683 -1
w 2684 0.5
w 2685 -1
w 2686 -1
w 2687 -1
w 2688 -1
w 2689 0.5
w 2690 -1
w 2691 -1
w 2692 -1
w 2693 -1
w 2694 -1
w 2695 -1
w 2696 -1
w 2697 -1
w 2698 -1
w 2699 -1
w 2700 -1
w 2701 -1
w 2702 0.5
w 2703 -1
w 2704 -1
w 2705 0.3299708757197677
w 2706 -1
w 2707 -1
w 2708 -1
w 2709 0.5
w 2710 -1
w 2711 -1
w 2712 -1
w 2713 -1
w 2714 0.5
w 2715 -1
w 2716 -1
w 2717 0.5
w 2718 0.5
w 2719 -1
w 2720 -1
w 2721 -1
w 2722 -1
w 2723 -1
w 2724 -1
w 2725 0.5
w 2726 0.7847782020116679
w 2727 -1
w 2728 -1
w 2729 0.7077876063879838
w 2730 -1
w 2731 -1
w 2732 -1
w 2733 -1
w 2734 -1
w 2735 0.5
w 2736 -1
w 2737 -1
w 2738 0.5
w 2739 -1
w 2740 -1
w 2741 0.5
w 2742 -1
w 2743 -1
w 2744 0.5
w 2745 0.7946487003035404
w 2746 -1
w 2747 0.5
w 2748 -1
w 2749 0.8734560663021577
w 2750 0.5
w 2751 -1
w 2752 -1
w 2753 -1
w 2754 -1
w 2755 -1
w 2756 -1
w 2757 -1
w 2758 -1
w 2759 -1
w 2760 0.5
w 2761 -1
w 2762 -1
w 2763 0.5
w 2764 -1
w 2765 -1
w 2766 0.5
w 2767 -1
w 2768 -1
w 2769 -1
w 2770 -1
w 2771 -1
w 2772 -1
w 2773 -1
w 2774 -1
w 2775 0.5
w 2776 0.5
w 2777 -1
w 2778 0.5
w 2779 -1
w 2780 -1
w 2781 -1
w 2782 0.5
w 2783 -1
w 2784 -1
w 2785 -1
w 2786 0.5
w 2787 -1
w 2788 -1
w 2789 0.716442766676125
w 2790 0.5
w 2791 -1
w 2792 -1
w 2793 -1
w 2794 -1
w 2795 -1
w 2796 -1
w 2797 -1
w 2798 -1
w 2799 -1
w 2800 -1
w 2801 -1
w 2802 -1
w 2803 -1
w 2804 0.5
w 2805 0.5
w 2806 -1
w 2807 -1
w 2808 -1
w 2809 -1
w 2810 -1
w 2811 -1
w 2812 0.5
w 2813 -1
w 2814 -1
w 2815 0.5
w 2816 -1
w 2817 -1
w 2818 -1
w 2819 -1
w 2820 -1
w 2821 -1
w 2822 -1
w 2823 -1
w 2824 -1
w 2825 -1
w 2826 -1
w 2827 -1
w 2828 -1
w 2829 0.5
w 2830 -1
w 2831 -1
w 2832 -1
w 2833 -1
w 2834 -1
w 2835 -1
w 2836 -1
w 2837 -1
w 2838 -1
w 2839 -1
w 2840 -1
w 2841 -1
w 2842 0.5
w 2843 -1
w 2844 0.5
w 2845 -1
w 2846 -1
w 2847 -1
w 2848 -1
w 2849 -1
w 2850 -1
w 2851 -1
w 2852 -1
w 2853 -1
w 2854 -1
w 2855 -1
w 2856 -1
w 2857 -1
w 2858 -1
w 2859 -1
w 2860 -1
w 2861 -1
w 2862 -1
w 2863 -1
w 2864 -1
w 2865 -1
w 2866 -1
w 2867 -1
w 2868 -1
w 2869 -1
w 2870 -1
w 2871 -1
w 2872 -1
w 2873 -1
w 2874 -1
w 2875 -1
w 2876 -1
w 2877 -1
w 2878 -1
w 2879 -1
w 2880 -1
w 2881 -1
w 2882 -1
w 2883 -1
w 2884 0.5
w 2885 -1
w 2886 0.21949212337781893
w 2887 0.43427377597718825
w 2888 -1
w 2889 -1
w 2890 -1
w 2891 -1
w 2892 0.5
w 2893 -1
w 2894 -1
w 2895 0.5
w 2896 -1
w 2897 -1
w 2898 -1
w 2899 -1
w 2900 -1
w 2901 -1
w 2902 -1
w 2903 -1
w 2904 -1
w 2905 -1
w 2906 -1
w 2907 -1
w 2908 -1
w 2909 -1
w 2910 -1
w 2911 -1
w 2912 -1
w 2913 0.5
w 2914 -1
w 2915 -1
w 2916 -1
w 2917 0.5
w 2918 -1
w 2919 -1
w 2920 0.5
w 2921 -1
w 2922 -1
w 2923 -1
w 2924 -1
w 2925 0.5
w 2926 -1
w 2927 -1
w 2928 0.5
w 2929 -1
w 2930 -1
w 2931 -1
w 2932 -1
w 2933 -1
w 2934 -1
w 2935 -1
w 2936 0.5
w 2937 -1
w 2938 0.5
w 2939 0.8671905325331375
w 2940 0.5
w 2941 -1
w 2942 -1
w 2943 -1
w 2944 -1
w 2945 -1
w 2946 -1
w 2947 -1
w 2948 -1
w 2949 -1
w 2950 -1
w 2951 0.5
w 2952 -1
w 2953 0.19055329584815708
w 2954 -1
w 2955 -1
w 2956 -1
w 2957 -1
w 2958 -1
w 2959 -1
w 2960 -1
w 2961 -1
w 2962 -1
w 2963 -1
w 2964 -1
w 2965 0.8106992859552442
w 2966 -1
w 2967 -1
w 2968 -1
w 2969 -1
w 2970 -1
w 2971 -1
w 2972 -1
w 2973 0.5
w 2974 -1
w 2975 -1
w 2976 -1
w 2977 -1
w 2978 -1
w 2979 0.5
w 2980 -1
w 2981 -1
w 2982 -1
w 2983 -1
w 2984 0.5
w 2985 -1
w 2986 -1
w 2987 -1
w 2988 -1
w 2989 -1
w 2990 -1
w 2991 -1
w 2992 -1
w 2993 -1
w 2994 0.5
w 2995 -1
w 2996 -1
w 2997 -1
w 2998 -1
w 2999 -1
w 3000 -1
w 3001 -1
w 3002 -1
w 3003 -1
w 3004 -1
w 3005 -1
w 3006 -1
w 3007 -1
w 3008 -1
w 3009 -1
w 3010 -1
w 3011 -1
w 3012 -1
w 3013 -1
w 3014 -1
w 3015 -1
w 3016 0.5
w 3017 -1
w 3018 0.5
w 3019 -1
w 3020 -1
w 3021 -1
w 3022 -1
w 3023 -1
w 3024 0.5
w 3025 -1
w 3026 -1
w 3027 -1
w 3028 -1
w 3029 0.4154061986026377
w 3030 -1
w 3031 -1
w 3032 -1
w 3033 0.5
w 3034 -1
w 3035 0.13998516649341883
w 3036 0.230213887712826
w 3037 -1
w 3038 -1
w 3039 -1
w 3040 0.5
w 3041 -1
w 3042 -1
w 3043 -1
w 3044 -1
w 3045 -1
w 3046 -1
w 3047 -1
w 3048 -1
w 3049 -1
w 3050 -1
w 3051 -1
w 3052 -1
w 3053 0.5
w 3054 -1
w 3055 -1
w 3056 0.6511893022601046
w 3057 -1
w 3058 -1
w 3059 0.5
w 3060 -1
w 3061 -1
w 3062 0.5
w 3063 -1
w 3064 -1
w 3065 -1
w 3066 -1
w 3067 -1
w 3068 -1
w 3069 -1
w 3070 0.6291287237164478
w 3071 -1
w 3072 -1
w 3073 0.5
w 3074 -1
w 3075 -1
w 3076 -1
w 3077 -1
w 3078 -1
w 3079 0.5
w 3080 -1
w 3081 -1
w 3082 -1
w 3083 0.6040662364178035
w 3084 -1
w 3085 -1
w 3086 -1
w 3087 -1
w 3088 -1
w 3089 -1
w 3090 -1
w 3091 -1
w 3092 -1
w 3093 -1
w 3094 -1
w 3095 -1
w 3096 -1
w 3097 -1
w 3098 -1
w 3099 -1
w 3100 -1
w 3101 -1
w 3102 -1
w 3103 -1
w 3104 -1
w 3105 -1
w 3106 -1
w 3107 -1
w 3108 -1
w 3109 -1
w 3110 0.5
w 3111 -1
w 3112 -1
w 3113 -1
w 3114 -1
w 3115 -1
w 3116 -1
w 3117 0.5278296530516742
w 3118 -1
w 3119 -1
w 3120 -1
w 3121 0.5
w 3122 -1
w 3123 -1
w 3124 -1
w 3125 -1
w 3126 -1
w 3127 -1
w 3128 -1
w 3129 0.7053456642315108
w 3130 -1
w 3131 -1
w 3132 -1
w 3133 -1
w 3134 -1
w 3135 -1
w 3136 0.5
w 3137 -1
w 3138 -1
w 3139 0.5
w 3140 -1
w 3141 -1
w 3142 -1
w 3143 -1
w 3144 -1
w 3145 -1
w 3146 0.7775155847454869
w 3147 -1
w 3148 -1
w 3149 -1
w 3150 -1
w 3151 -1
w 3152 -1
w 3153 -1
w 3154 0.5
w 3155 -1
w 3156 -1
w 3157 -1
w 3158 0.6147216923639837
w 3159 0.5
w 3160 -1
w 3161 -1
w 3162 -1
w 3163 -1
w 3164 -1
w 3165 0.5
w 3166 -1
w 3167 -1
w 3168 -1
w 3169 -1
w 3170 -1
w 3171 -1
w 3172 0.5
w 3173 -1
w 3174 -1
w 3175 -1
w 3176 -1
w 3177 -1
w 3178 -1
w 3179 -1
w 3180 -1
w 3181 -1
w 3182 0.5
w 3183 0.3771712875822293
w 3184 -1
w 3185 -1
w 3186 -1
w 3187 -1
w 3188 -1
w 3189 -1
w 3190 -1
w 3191 -1
-163 -3136 -1682 0
-163 -3136 -874 0
-163 -3136 -2253 0
-163 -3136 -884 0
-163 -3136 1259 -874 0
-163 -3136 -1259 874 0
-163 -3136 269 -884 0
-163 -3136 -269 884 0
-163 -3136 1207 -1682 0
-163 -3136 -1207 1682 0
-163 -3136 2099 -2253 0
-163 -3136 -2099 2253 0
-163 3136 2075 0
-163 3136 915 0
-163 3136 1120 0
-163 3136 2759 0
-163 3136 1259 -915 0
-163 3136 -1259 915 0
-163 3136 269 -2759 0
-163 3136 -269 2759 0
-163 3136 1207 -2075 0
-163 3136 -1207 2075 0
-163 3136 2099 -1120 0
-163 3136 -2099 1120 0
-163 853 0
-163 1511 -1259 0
-163 -1511 1259 0
-163 2436 -269 0
-163 -2436 269 0
-163 775 -1207 0
-163 -775 1207 0
-163 1044 -2099 0
-163 -1044 2099 0
163 -1612 -2530 0
163 -1612 -1402 0
163 -1612 2052 0
163 -1612 1317 0
163 -1612 2664 -1402 0
163 -1612 -2664 1402 0
163 -1612 1743 -1317 0
163 -1612 -1743 1317 0
163 -1612 1519 -2530 0
163 -1612 -1519 2530 0
163 -1612 662 -2052 0
163 -1612 -662 2052 0
163 1612 330 0
163 1612 2915 0
163 1612 -2281 0
163 1612 -1151 0
163 1612 2664 -2915 0
163 1612 -2664 2915 0
163 1612 1743 -1151 0
163 1612 -1743 1151 0
163 1612 1519 -330 0
163 1612 -1519 330 0
163 1612 662 -2281 0
163 1612 -662 2281 0
163 1446 0
163 1511 -2664 0
163 -1511 2664 0
163 2436 -1743 0
163 -2436 1743 0
163 775 -1519 0
163 -775 1519 0
163 1044 -662 0
163 -1044 662 0
-336 -1658 -501 0
-336 -1658 -2221 0
-336 -1658 -2864 0
-336 -1658 -1181 0
-336 -1658 1527 -2221 0
-336 -1658 -1527 2221 0
-336 -1658 1719 -1181 0
-336 -1658 -1719 1181 0
-336 -1658 1285 -501 0
-336 -1658 -1285 501 0
-336 -1658 1369 -2864 0
-336 -1658 -1369 2864 0
-336 1658 2540 0
-336 1658 892 0
-336 1658 1672 0
-336 1658 354 0
-336 1658 1527 -892 0
-336 1658 -1527 892 0
-336 1658 1719 -354 0
-336 1658 -1719 354 0
-336 1658 1285 -2540 0
-336 1658 -1285 2540 0
-336 1658 1369 -1672 0
-336 1658 -1369 1672 0
-336 2892 0
-336 182 -1527 0
-336 -182 1527 0
-336 342 -1719 0
-336 -342 1719 0
-336 1511 -1285 0
-336 -1511 1285 0
-336 234 -1369 0
-336 -234 1369 0
336 -1861 -870 0
336 -1861 -2036 0
336 -1861 3145 0
336 -1861 205 0
336 -1861 1596 -2036 0
336 -1861 -1596 2036 0
336 -1861 2691 -205 0
336 -1861 -2691 205 0
336 -1861 1774 -870 0
336 -1861 -1774 870 0
336 -1861 1153 -3145 0
336 -1861 -1153 3145 0
336 1861 2377 0
336 1861 1488 0
336 1861 -890 0
336 1861 -142 0
336 1861 1596 -1488 0
336 1861 -1596 1488 0
336 1861 2691 -142 0
336 1861 -2691 142 0
336 1861 1774 -2377 0
336 1861 -1774 2377 0
336 1861 1153 -890 0
336 1861 -1153 890 0
336 587 0
336 182 -1596 0
336 -182 1596 0
336 342 -2691 0
336 -342 2691 0
336 1511 -1774 0
336 -1511 1774 0
336 234 -1153 0
336 -234 1153 0
-633 -2461 -2733 0
-633 -2461 -3149 0
-633 -2461 -3184 0
-633 -2461 -1898 0
-633 -2461 2063 -3149 0
-633 -2461 -2063 3149 0
-633 -2461 393 -1898 0
-633 -2461 -393 1898 0
-633 -2461 1713 -2733 0
-633 -2461 -1713 2733 0
-633 -2461 1417 -3184 0
-633 -2461 -1417 3184 0
-633 2461 367 0
-633 2461 379 0
-633 2461 204 0
-633 2461 1695 0
-633 2461 2063 -379 0
-633 2461 -2063 379 0
-633 2461 393 -1695 0
-633 2461 -393 1695 0
-633 2461 1713 -367 0
-633 2461 -1713 367 0
-633 2461 1417 -204 0
-633 2461 -1417 204 0
-633 2763 0
-633 953 -2063 0
-633 -953 2063 0
-633 325 -393 0
-633 -325 393 0
-633 182 -1713 0
-633 -182 1713 0
-633 2307 -1417 0
-633 -2307 1417 0
633 -575 -1416 0
633 -575 -971 0
633 -575 27 0
633 -575 932 0
633 -575 508 -971 0
633 -575 -508 971 0
633 -575 2325 -932 0
633 -575 -2325 932 0
633 -575 1920 -1416 0
633 -575 -1920 1416 0
633 -575 477 -27 0
633 -575 -477 27 0
633 575 1273 0
633 575 1798 0
633 575 -384 0
633 575 -113 0
633 575 508 -1798 0
633 575 -508 1798 0
633 575 2325 -113 0
633 575 -2325 113 0
633 575 1920 -1273 0
633 575 -1920 1273 0
633 575 477 -384 0
633 575 -477 384 0
633 2139 0
633 953 -508 0
633 -953 508 0
633 325 -2325 0
633 -325 2325 0
633 182 -1920 0
633 -182 1920 0
633 2307 -477 0
633 -2307 477 0
-2639 -2778 -220 0
-2639 -2778 -2044 0
-2639 -2778 -1654 0
-2639 -2778 -21 0
-2639 -2778 96 -2044 0
-2639 -2778 -96 2044 0
-2639 -2778 1845 -21 0
-2639 -2778 -1845 21 0
-2639 -2778 1331 -220 0
-2639 -2778 -1331 220 0
-2639 -2778 262 -1654 0
-2639 -2778 -262 1654 0
-2639 2778 2025 0
-2639 2778 1928 0
-2639 2778 912 0
-2639 2778 2516 0
-2639 2778 96 -1928 0
-2639 2778 -96 1928 0
-2639 2778 1845 -2516 0
-2639 2778 -1845 2516 0
-2639 2778 1331 -2025 0
-2639 2778 -1331 2025 0
-2639 2778 262 -912 0
-2639 2778 -262 912 0
-2639 2709 0
-2639 3088 -96 0
-2639 -3088 96 0
-2639 704 -1845 0
-2639 -704 1845 0
-2639 953 -1331 0
-2639 -953 1331 0
-2639 559 -262 0
-2639 -559 262 0
2639 -276 -83 0
2639 -276 -1397 0
2639 -276 2107 0
2639 -276 498 0
2639 -276 1029 -1397 0
2639 -276 -1029 1397 0
2639 -276 1542 -498 0
2639 -276 -1542 498 0
2639 -276 2142 -83 0
2639 -276 -2142 83 0
2639 -276 2555 -2107 0
2639 -276 -2555 2107 0
2639 276 1622 0
2639 276 2659 0
2639 276 -821 0
2639 276 -1626 0
2639 276 1029 -2659 0
2639 276 -1029 2659 0
2639 276 1542 -1626 0
2639 276 -1542 1626 0
2639 276 2142 -1622 0
2639 276 -2142 1622 0
2639 276 2555 -821 0
2639 276 -2555 821 0
2639 610 0
2639 3088 -1029 0
2639 -3088 1029 0
2639 704 -1542 0
2639 -704 1542 0
2639 953 -2142 0
2639 -953 2142 0
2639 559 -2555 0
2639 -559 2555 0
-2965 -1829 -1072 0
-2965 -1829 -956 0
-2965 -1829 -993 0
-2965 -1829 -1199 0
-2965 -1829 3177 -956 0
-2965 -1829 -3177 956 0
-2965 -1829 3178 -1199 0
-2965 -1829 -3178 1199 0
-2965 -1829 1466 -1072 0
-2965 -1829 -1466 1072 0
-2965 -1829 536 -993 0
-2965 -1829 -536 993 0
-2965 1829 1771 0
-2965 1829 740 0
-2965 1829 215 0
-2965 1829 583 0
-2965 1829 3177 -740 0
-2965 1829 -3177 740 0
-2965 1829 3178 -583 0
-2965 1829 -3178 583 0
-2965 1829 1466 -1771 0
-2965 1829 -1466 1771 0
-2965 1829 536 -215 0
-2965 1829 -536 215 0
-2965 1725 0
-2965 1123 -3177 0
-2965 -1123 3177 0
-2965 1776 -3178 0
-2965 -1776 3178 0
-2965 753 -1466 0
-2965 -753 1466 0
-2965 3133 -536 0
-2965 -3133 536 0
2965 -108 -1089 0
2965 -108 -1571 0
2965 -108 1319 0
2965 -108 235 0
2965 -108 911 -1571 0
2965 -108 -911 1571 0
2965 -108 253 -235 0
2965 -108 -253 235 0
2965 -108 26 -1089 0
2965 -108 -26 1089 0
2965 -108 2881 -1319 0
2965 -108 -2881 1319 0
2965 108 2739 0
2965 108 808 0
2965 108 -2336 0
2965 108 -2216 0
2965 108 911 -808 0
2965 108 -911 808 0
2965 108 253 -2216 0
2965 108 -253 2216 0
2965 108 26 -2739 0
2965 108 -26 2739 0
2965 108 2881 -2336 0
2965 108 -2881 2336 0
2965 2628 0
2965 1123 -911 0
2965 -1123 911 0
2965 1776 -253 0
2965 -1776 253 0
2965 753 -26 0
2965 -753 26 0
2965 3133 -2881 0
2965 -3133 2881 0
-2062 -898 -1246 0
-2062 -898 -532 0
-2062 -898 -1790 0
-2062 -898 -1132 0
-2062 -898 352 -532 0
-2062 -898 -352 532 0
-2062 -898 1459 -1132 0
-2062 -898 -1459 1132 0
-2062 -898 1186 -1246 0
-2062 -898 -1186 1246 0
-2062 -898 3057 -1790 0
-2062 -898 -3057 1790 0
-2062 898 2145 0
-2062 898 2591 0
-2062 898 2159 0
-2062 898 625 0
-2062 898 352 -2591 0
-2062 898 -352 2591 0
-2062 898 1459 -625 0
-2062 898 -1459 625 0
-2062 898 1186 -2145 0
-2062 898 -1186 2145 0
-2062 898 3057 -2159 0
-2062 898 -3057 2159 0
-2062 196 0
-2062 3119 -352 0
-2062 -3119 352 0
-2062 1868 -1459 0
-2062 -1868 1459 0
-2062 1123 -1186 0
-2062 -1123 1186 0
-2062 3144 -3057 0
-2062 -3144 3057 0
2062 -1583 -851 0
2062 -1583 -1971 0
2062 -1583 2927 0
2062 -1583 1037 0
2062 -1583 1895 -1971 0
2062 -1583 -1895 1971 0
2062 -1583 1426 -1037 0
2062 -1583 -1426 1037 0
2062 -1583 202 -851 0
2062 -1583 -202 851 0
2062 -1583 3089 -2927 0
2062 -1583 -3089 2927 0
2062 1583 2997 0
2062 1583 2552 0
2062 1583 -2878 0
2062 1583 -2781 0
2062 1583 1895 -2552 0
2062 1583 -1895 2552 0
2062 1583 1426 -2781 0
2062 1583 -1426 2781 0
2062 1583 202 -2997 0
2062 1583 -202 2997 0
2062 1583 3089 -2878 0
2062 1583 -3089 2878 0
2062 1544 0
2062 3119 -1895 0
2062 -3119 1895 0
2062 1868 -1426 0
2062 -1868 1426 0
2062 1123 -202 0
2062 -1123 202 0
2062 3144 -3089 0
2062 -3144 3089 0
-2205 -2245 -2232 0
-2205 -2245 -820 0
-2205 -2245 -225 0
-2205 -2245 -200 0
-2205 -2245 1893 -820 0
-2205 -2245 -1893 820 0
-2205 -2245 2440 -200 0
-2205 -2245 -2440 200 0
-2205 -2245 2955 -2232 0
-2205 -2245 -2955 2232 0
-2205 -2245 2158 -225 0
-2205 -2245 -2158 225 0
-2205 2245 48 0
-2205 2245 2290 0
-2205 2245 2157 0
-2205 2245 1405 0
-2205 2245 1893 -2290 0
-2205 2245 -1893 2290 0
-2205 2245 2440 -1405 0
-2205 2245 -2440 1405 0
-2205 2245 2955 -48 0
-2205 2245 -2955 48 0
-2205 2245 2158 -2157 0
-2205 2245 -2158 2157 0
-2205 2928 0
-2205 1782 -1893 0
-2205 -1782 1893 0
-2205 896 -2440 0
-2205 -896 2440 0
-2205 3119 -2955 0
-2205 -3119 2955 0
-2205 433 -2158 0
-2205 -433 2158 0
2205 -1373 -813 0
2205 -1373 -547 0
2205 -1373 117 0
2205 -1373 3101 0
2205 -1373 40 -547 0
2205 -1373 -40 547 0
2205 -1373 2899 -3101 0
2205 -1373 -2899 3101 0
2205 -1373 1699 -813 0
2205 -1373 -1699 813 0
2205 -1373 3105 -117 0
2205 -1373 -3105 117 0
2205 1373 2429 0
2205 1373 2882 0
2205 1373 -3092 0
2205 1373 -979 0
2205 1373 40 -2882 0
2205 1373 -40 2882 0
2205 1373 2899 -979 0
2205 1373 -2899 979 0
2205 1373 1699 -2429 0
2205 1373 -1699 2429 0
2205 1373 3105 -3092 0
2205 1373 -3105 3092 0
2205 1973 0
2205 1782 -40 0
2205 -1782 40 0
2205 896 -2899 0
2205 -896 2899 0
2205 3119 -1699 0
2205 -3119 1699 0
2205 433 -3105 0
2205 -433 3105 0
-1915 -2884 -3047 0
-1915 -2884 -2111 0
-1915 -2884 -308 0
-1915 -2884 -1229 0
-1915 -2884 1944 -2111 0
-1915 -2884 -1944 2111 0
-1915 -2884 1070 -1229 0
-1915 -2884 -1070 1229 0
-1915 -2884 255 -3047 0
-1915 -2884 -255 3047 0
-1915 -2884 2373 -308 0
-1915 -2884 -2373 308 0
-1915 2884 1282 0
-1915 2884 302 0
-1915 2884 2069 0
-1915 2884 2539 0
-1915 2884 1944 -302 0
-1915 2884 -1944 302 0
-1915 2884 1070 -2539 0
-1915 2884 -1070 2539 0
-1915 2884 255 -1282 0
-1915 2884 -255 1282 0
-1915 2884 2373 -2069 0
-1915 2884 -2373 2069 0
-1915 2766 0
-1915 1378 -1944 0
-1915 -1378 1944 0
-1915 3108 -1070 0
-1915 -3108 1070 0
-1915 1782 -255 0
-1915 -1782 255 0
-1915 1643 -2373 0
-1915 -1643 2373 0
1915 -2844 -1761 0
1915 -2844 -8 0
1915 -2844 483 0
1915 -2844 518 0
1915 -2844 2056 -8 0
1915 -2844 -2056 8 0
1915 -2844 2061 -518 0
1915 -2844 -2061 518 0
1915 -2844 2743 -1761 0
1915 -2844 -2743 1761 0
1915 -2844 2092 -483 0
1915 -2844 -2092 483 0
1915 2844 1288 0
1915 2844 734 0
1915 2844 -700 0
1915 2844 -1929 0
1915 2844 2056 -734 0
1915 2844 -2056 734 0
1915 2844 2061 -1929 0
1915 2844 -2061 1929 0
1915 2844 2743 -1288 0
1915 2844 -2743 1288 0
1915 2844 2092 -700 0
1915 2844 -2092 700 0
1915 1737 0
1915 1378 -2056 0
1915 -1378 2056 0
1915 3108 -2061 0
1915 -3108 2061 0
1915 1782 -2743 0
1915 -1782 2743 0
1915 1643 -2092 0
1915 -1643 2092 0
-603 -2842 -2647 0
-603 -2842 -60 0
-603 -2842 -1276 0
-603 -2842 -1421 0
-603 -2842 1283 -60 0
-603 -2842 -1283 60 0
-603 -2842 2066 -1421 0
-603 -2842 -2066 1421 0
-603 -2842 1467 -2647 0
-603 -2842 -1467 2647 0
-603 -2842 1998 -1276 0
-603 -2842 -1998 1276 0
-603 2842 2771 0
-603 2842 1055 0
-603 2842 2446 0
-603 2842 2320 0
-603 2842 1283 -1055 0
-603 2842 -1283 1055 0
-603 2842 2066 -2320 0
-603 2842 -2066 2320 0
-603 2842 1467 -2771 0
-603 2842 -1467 2771 0
-603 2842 1998 -2446 0
-603 2842 -1998 2446 0
-603 290 0
-603 2983 -1283 0
-603 -2983 1283 0
-603 1441 -2066 0
-603 -1441 2066 0
-603 2436 -1467 0
-603 -2436 1467 0
-603 289 -1998 0
-603 -289 1998 0
603 -2080 -2696 0
603 -2080 -222 0
603 -2080 445 0
603 -2080 837 0
603 -2080 3044 -222 0
603 -2080 -3044 222 0
603 -2080 613 -837 0
603 -2080 -613 837 0
603 -2080 1671 -2696 0
603 -2080 -1671 2696 0
603 -2080 1491 -445 0
603 -2080 -1491 445 0
603 2080 3061 0
603 2080 684 0
603 2080 -2265 0
603 2080 -2509 0
603 2080 3044 -684 0
603 2080 -3044 684 0
603 2080 613 -2509 0
603 2080 -613 2509 0
603 2080 1671 -3061 0
603 2080 -1671 3061 0
603 2080 1491 -2265 0
603 2080 -1491 2265 0
603 873 0
603 2983 -3044 0
603 -2983 3044 0
603 1441 -613 0
603 -1441 613 0
603 2436 -1671 0
603 -2436 1671 0
603 289 -1491 0
603 -289 1491 0
-1533 -2917 -115 0
-1533 -2917 -2967 0
-1533 -2917 -1471 0
-1533 -2917 -2184 0
-1533 -2917 292 -2967 0
-1533 -2917 -292 2967 0
-1533 -2917 502 -2184 0
-1533 -2917 -502 2184 0
-1533 -2917 132 -115 0
-1533 -2917 -132 115 0
-1533 -2917 509 -1471 0
-1533 -2917 -509 1471 0
-1533 2917 2975 0
-1533 2917 1447 0
-1533 2917 1809 0
-1533 2917 1892 0
-1533 2917 292 -1447 0
-1533 2917 -292 1447 0
-1533 2917 502 -1892 0
-1533 2917 -502 1892 0
-1533 2917 132 -2975 0
-1533 2917 -132 2975 0
-1533 2917 509 -1809 0
-1533 2917 -509 1809 0
-1533 2437 0
-1533 771 -292 0
-1533 -771 292 0
-1533 2241 -502 0
-1533 -2241 502 0
-1533 2983 -132 0
-1533 -2983 132 0
-1533 848 -509 0
-1533 -848 509 0
1533 -1836 -3075 0
1533 -1836 -1187 0
1533 -1836 1800 0
1533 -1836 1561 0
1533 -1836 1814 -1187 0
1533 -1836 -1814 1187 0
1533 -1836 2666 -1561 0
1533 -1836 -2666 1561 0
1533 -1836 1710 -3075 0
1533 -1836 -1710 3075 0
1533 -1836 3166 -1800 0
1533 -1836 -3166 1800 0
1533 1836 3021 0
1533 1836 3086 0
1533 1836 -921 0
1533 1836 -2999 0
1533 1836 1814 -3086 0
1533 1836 -1814 3086 0
1533 1836 2666 -2999 0
1533 1836 -2666 2999 0
1533 1836 1710 -3021 0
1533 1836 -1710 3021 0
1533 1836 3166 -921 0
1533 1836 -3166 921 0
1533 157 0
1533 771 -1814 0
1533 -771 1814 0
1533 2241 -2666 0
1533 -2241 2666 0
1533 2983 -1710 0
1533 -2983 1710 0
1533 848 -3166 0
1533 -848 3166 0
-650 -78 -420 0
-650 -78 -1721 0
-650 -78 -1038 0
-650 -78 -2962 0
-650 -78 153 -1721 0
-650 -78 -153 1721 0
-650 -78 1593 -2962 0
-650 -78 -1593 2962 0
-650 -78 1830 -420 0
-650 -78 -1830 420 0
-650 -78 543 -1038 0
-650 -78 -543 1038 0
-650 78 1870 0
-650 78 1296 0
-650 78 2535 0
-650 78 834 0
-650 78 153 -1296 0
-650 78 -153 1296 0
-650 78 1593 -834 0
-650 78 -1593 834 0
-650 78 1830 -1870 0
-650 78 -1830 1870 0
-650 78 543 -2535 0
-650 78 -543 2535 0
-650 520 0
-650 2958 -153 0
-650 -2958 153 0
-650 3093 -1593 0
-650 -3093 1593 0
-650 940 -1830 0
-650 -940 1830 0
-650 3171 -543 0
-650 -3171 543 0
650 -1118 -2930 0
650 -1118 -285 0
650 -1118 941 0
650 -1118 1492 0
650 -1118 1839 -285 0
650 -1118 -1839 285 0
650 -1118 251 -1492 0
650 -1118 -251 1492 0
650 -1118 602 -2930 0
650 -1118 -602 2930 0
650 -1118 71 -941 0
650 -1118 -71 941 0
650 1118 838 0
650 1118 1134 0
650 1118 -644 0
650 1118 -3156 0
650 1118 1839 -1134 0
650 1118 -1839 1134 0
650 1118 251 -3156 0
650 1118 -251 3156 0
650 1118 602 -838 0
650 1118 -602 838 0
650 1118 71 -644 0
650 1118 -71 644 0
650 1758 0
650 2958 -1839 0
650 -2958 1839 0
650 3093 -251 0
650 -3093 251 0
650 940 -602 0
650 -940 602 0
650 3171 -71 0
650 -3171 71 0
-2663 -2725 -1940 0
-2663 -2725 -773 0
-2663 -2725 -2039 0
-2663 -2725 -1387 0
-2663 -2725 1191 -773 0
-2663 -2725 -1191 773 0
-2663 -2725 1762 -1387 0
-2663 -2725 -1762 1387 0
-2663 -2725 3002 -1940 0
-2663 -2725 -3002 1940 0
-2663 -2725 2318 -2039 0
-2663 -2725 -2318 2039 0
-2663 2725 428 0
-2663 2725 3078 0
-2663 2725 525 0
-2663 2725 2362 0
-2663 2725 1191 -3078 0
-2663 2725 -1191 3078 0
-2663 2725 1762 -2362 0
-2663 2725 -1762 2362 0
-2663 2725 3002 -428 0
-2663 2725 -3002 428 0
-2663 2725 2318 -525 0
-2663 2725 -2318 525 0
-2663 2606 0
-2663 643 -1191 0
-2663 -643 1191 0
-2663 250 -1762 0
-2663 -250 1762 0
-2663 531 -3002 0
-2663 -531 3002 0
-2663 1441 -2318 0
-2663 -1441 2318 0
2663 -2804 -1966 0
2663 -2804 -1125 0
2663 -2804 376 0
2663 -2804 744 0
2663 -2804 1610 -1125 0
2663 -2804 -1610 1125 0
2663 -2804 2556 -744 0
2663 -2804 -2556 744 0
2663 -2804 709 -1966 0
2663 -2804 -709 1966 0
2663 -2804 504 -376 0
2663 -2804 -504 376 0
2663 2804 523 0
2663 2804 2279 0
2663 2804 -2946 0
2663 2804 -1474 0
2663 2804 1610 -2279 0
2663 2804 -1610 2279 0
2663 2804 2556 -1474 0
2663 2804 -2556 1474 0
2663 2804 709 -523 0
2663 2804 -709 523 0
2663 2804 504 -2946 0
2663 2804 -504 2946 0
2663 922 0
2663 643 -1610 0
2663 -643 1610 0
2663 250 -2556 0
2663 -250 2556 0
2663 531 -709 0
2663 -531 709 0
2663 1441 -504 0
2663 -1441 504 0
-1232 -2678 -1386 0
-1232 -2678 -1563 0
-1232 -2678 -1647 0
-1232 -2678 -103 0
-1232 -2678 2337 -1563 0
-1232 -2678 -2337 1563 0
-1232 -2678 2463 -103 0
-1232 -2678 -2463 103 0
-1232 -2678 2839 -1386 0
-1232 -2678 -2839 1386 0
-1232 -2678 2348 -1647 0
-1232 -2678 -2348 1647 0
-1232 2678 2870 0
-1232 2678 900 0
-1232 2678 828 0
-1232 2678 2435 0
-1232 2678 2337 -900 0
-1232 2678 -2337 900 0
-1232 2678 2463 -2435 0
-1232 2678 -2463 2435 0
-1232 2678 2839 -2870 0
-1232 2678 -2839 2870 0
-1232 2678 2348 -828 0
-1232 2678 -2348 828 0
-1232 2079 0
-1232 512 -2337 0
-1232 -512 2337 0
-1232 2486 -2463 0
-1232 -2486 2463 0
-1232 643 -2839 0
-1232 -643 2839 0
-1232 1837 -2348 0
-1232 -1837 2348 0
1232 -2464 -217 0
1232 -2464 -2097 0
1232 -2464 176 0
1232 -2464 1957 0
1232 -2464 1328 -2097 0
1232 -2464 -1328 2097 0
1232 -2464 815 -1957 0
1232 -2464 -815 1957 0
1232 -2464 2479 -217 0
1232 -2464 -2479 217 0
1232 -2464 517 -176 0
1232 -2464 -517 176 0
1232 2464 1685 0
1232 2464 2727 0
1232 2464 -258 0
1232 2464 -312 0
1232 2464 1328 -2727 0
1232 2464 -1328 2727 0
1232 2464 815 -312 0
1232 2464 -815 312 0
1232 2464 2479 -1685 0
1232 2464 -2479 1685 0
1232 2464 517 -258 0
1232 2464 -517 258 0
1232 1676 0
1232 512 -1328 0
1232 -512 1328 0
1232 2486 -815 0
1232 -2486 815 0
1232 643 -2479 0
1232 -643 2479 0
1232 1837 -517 0
1232 -1837 517 0
-954 -2371 -897 0
-954 -2371 -1338 0
-954 -2371 -341 0
-954 -2371 -2537 0
-954 -2371 974 -1338 0
-954 -2371 -974 1338 0
-954 -2371 2559 -2537 0
-954 -2371 -2559 2537 0
-954 -2371 2502 -897 0
-954 -2371 -2502 897 0
-954 -2371 1715 -341 0
-954 -2371 -1715 341 0
-954 2371 1580 0
-954 2371 2087 0
-954 2371 79 0
-954 2371 1943 0
-954 2371 974 -2087 0
-954 2371 -974 2087 0
-954 2371 2559 -1943 0
-954 2371 -2559 1943 0
-954 2371 2502 -1580 0
-954 2371 -2502 1580 0
-954 2371 1715 -79 0
-954 2371 -1715 79 0
-954 1094 0
-954 763 -974 0
-954 -763 974 0
-954 2960 -2559 0
-954 -2960 2559 0
-954 513 -2502 0
-954 -513 2502 0
-954 2898 -1715 0
-954 -2898 1715 0
954 -2334 -617 0
954 -2334 -1197 0
954 -2334 1366 0
954 -2334 1048 0
954 -2334 106 -1197 0
954 -2334 -106 1197 0
954 -2334 1770 -1048 0
954 -2334 -1770 1048 0
954 -2334 2113 -617 0
954 -2334 -2113 617 0
954 -2334 2737 -1366 0
954 -2334 -2737 1366 0
954 2334 3162 0
954 2334 2682 0
954 2334 -1700 0
954 2334 -2918 0
954 2334 106 -2682 0
954 2334 -106 2682 0
954 2334 1770 -2918 0
954 2334 -1770 2918 0
954 2334 2113 -3162 0
954 2334 -2113 3162 0
954 2334 2737 -1700 0
954 2334 -2737 1700 0
954 1382 0
954 763 -106 0
954 -763 106 0
954 2960 -1770 0
954 -2960 1770 0
954 513 -2113 0
954 -513 2113 0
954 2898 -2737 0
954 -2898 2737 0
-1206 -1489 -727 0
-1206 -1489 -1934 0
-1206 -1489 -161 0
-1206 -1489 -620 0
-1206 -1489 2818 -1934 0
-1206 -1489 -2818 1934 0
-1206 -1489 720 -620 0
-1206 -1489 -720 620 0
-1206 -1489 1113 -727 0
-1206 -1489 -1113 727 0
-1206 -1489 1935 -161 0
-1206 -1489 -1935 161 0
-1206 1489 572 0
-1206 1489 3043 0
-1206 1489 964 0
-1206 1489 1539 0
-1206 1489 2818 -3043 0
-1206 1489 -2818 3043 0
-1206 1489 720 -1539 0
-1206 1489 -720 1539 0
-1206 1489 1113 -572 0
-1206 1489 -1113 572 0
-1206 1489 1935 -964 0
-1206 1489 -1935 964 0
-1206 2439 0
-1206 252 -2818 0
-1206 -252 2818 0
-1206 2466 -720 0
-1206 -2466 720 0
-1206 763 -1113 0
-1206 -763 1113 0
-1206 2605 -1935 0
-1206 -2605 1935 0
1206 -1105 -711 0
1206 -1105 -1859 0
1206 -1105 2905 0
1206 -1105 270 0
1206 -1105 1648 -1859 0
1206 -1105 -1648 1859 0
1206 -1105 1268 -270 0
1206 -1105 -1268 270 0
1206 -1105 291 -711 0
1206 -1105 -291 711 0
1206 -1105 2872 -2905 0
1206 -1105 -2872 2905 0
1206 1105 1922 0
1206 1105 628 0
1206 1105 -1277 0
1206 1105 -787 0
1206 1105 1648 -628 0
1206 1105 -1648 628 0
1206 1105 1268 -787 0
1206 1105 -1268 787 0
1206 1105 291 -1922 0
1206 1105 -291 1922 0
1206 1105 2872 -1277 0
1206 1105 -2872 1277 0
1206 221 0
1206 252 -1648 0
1206 -252 1648 0
1206 2466 -1268 0
1206 -2466 1268 0
1206 763 -291 0
1206 -763 291 0
1206 2605 -2872 0
1206 -2605 2872 0
-1556 -653 -2482 0
-1556 -653 -805 0
-1556 -653 -173 0
-1556 -653 -2255 0
-1556 -653 3030 -805 0
-1556 -653 -3030 805 0
-1556 -653 2254 -2255 0
-1556 -653 -2254 2255 0
-1556 -653 667 -2482 0
-1556 -653 -667 2482 0
-1556 -653 474 -173 0
-1556 -653 -474 173 0
-1556 653 233 0
-1556 653 2686 0
-1556 653 736 0
-1556 653 722 0
-1556 653 3030 -2686 0
-1556 653 -3030 2686 0
-1556 653 2254 -722 0
-1556 653 -2254 722 0
-1556 653 667 -233 0
-1556 653 -667 233 0
-1556 653 474 -736 0
-1556 653 -474 736 0
-1556 3033 0
-1556 102 -3030 0
-1556 -102 3030 0
-1556 396 -2254 0
-1556 -396 2254 0
-1556 252 -667 0
-1556 -252 667 0
-1556 2486 -474 0
-1556 -2486 474 0
1556 -2088 -438 0
1556 -2088 -967 0
1556 -2088 2228 0
1556 -2088 611 0
1556 -2088 61 -967 0
1556 -2088 -61 967 0
1556 -2088 1107 -611 0
1556 -2088 -1107 611 0
1556 -2088 2767 -438 0
1556 -2088 -2767 438 0
1556 -2088 135 -2228 0
1556 -2088 -135 2228 0
1556 2088 56 0
1556 2088 2210 0
1556 2088 -3017 0
1556 2088 -1443 0
1556 2088 61 -2210 0
1556 2088 -61 2210 0
1556 2088 1107 -1443 0
1556 2088 -1107 1443 0
1556 2088 2767 -56 0
1556 2088 -2767 56 0
1556 2088 135 -3017 0
1556 2088 -135 3017 0
1556 2215 0
1556 102 -61 0
1556 -102 61 0
1556 396 -1107 0
1556 -396 1107 0
1556 252 -2767 0
1556 -252 2767 0
1556 2486 -135 0
1556 -2486 135 0
-2705 -612 -460 0
-2705 -612 -360 0
-2705 -612 -3137 0
-2705 -612 -369 0
-2705 -612 1436 -360 0
-2705 -612 -1436 360 0
-2705 -612 2077 -369 0
-2705 -612 -2077 369 0
-2705 -612 1202 -460 0
-2705 -612 -1202 460 0
-2705 -612 2644 -3137 0
-2705 -612 -2644 3137 0
-2705 612 2683 0
-2705 612 2328 0
-2705 612 1540 0
-2705 612 876 0
-2705 612 1436 -2328 0
-2705 612 -1436 2328 0
-2705 612 2077 -876 0
-2705 612 -2077 876 0
-2705 612 1202 -2683 0
-2705 612 -1202 2683 0
-2705 612 2644 -1540 0
-2705 612 -2644 1540 0
-2705 2306 0
-2705 450 -1436 0
-2705 -450 1436 0
-2705 1060 -2077 0
-2705 -1060 2077 0
-2705 3093 -1202 0
-2705 -3093 1202 0
-2705 1848 -2644 0
-2705 -1848 2644 0
2705 -1698 -2203 0
2705 -1698 -1478 0
2705 -1698 193 0
2705 -1698 1822 0
2705 -1698 3087 -1478 0
2705 -1698 -3087 1478 0
2705 -1698 148 -1822 0
2705 -1698 -148 1822 0
2705 -1698 2285 -2203 0
2705 -1698 -2285 2203 0
2705 -1698 3009 -193 0
2705 -1698 -3009 193 0
2705 1698 238 0
2705 1698 116 0
2705 1698 -2170 0
2705 1698 -737 0
2705 1698 3087 -116 0
2705 1698 -3087 116 0
2705 1698 148 -737 0
2705 1698 -148 737 0
2705 1698 2285 -238 0
2705 1698 -2285 238 0
2705 1698 3009 -2170 0
2705 1698 -3009 2170 0
2705 1680 0
2705 450 -3087 0
2705 -450 3087 0
2705 1060 -148 0
2705 -1060 148 0
2705 3093 -2285 0
2705 -3093 2285 0
2705 1848 -3009 0
2705 -1848 3009 0
-3036 -2060 -2982 0
-3036 -2060 -1887 0
-3036 -2060 -1121 0
-3036 -2060 -558 0
-3036 -2060 214 -1887 0
-3036 -2060 -214 1887 0
-3036 -2060 1449 -558 0
-3036 -2060 -1449 558 0
-3036 -2060 66 -2982 0
-3036 -2060 -66 2982 0
-3036 -2060 2722 -1121 0
-3036 -2060 -2722 1121 0
-3036 2060 1346 0
-3036 2060 2685 0
-3036 2060 1245 0
-3036 2060 284 0
-3036 2060 214 -2685 0
-3036 2060 -214 2685 0
-3036 2060 1449 -284 0
-3036 2060 -1449 284 0
-3036 2060 66 -1346 0
-3036 2060 -66 1346 0
-3036 2060 2722 -1245 0
-3036 2060 -2722 1245 0
-3036 2994 0
-3036 992 -214 0
-3036 -992 214 0
-3036 594 -1449 0
-3036 -594 1449 0
-3036 747 -66 0
-3036 -747 66 0
-3036 699 -2722 0
-3036 -699 2722 0
3036 -2913 -11 0
3036 -2913 -29 0
3036 -2913 2784 0
3036 -2913 1174 0
3036 -2913 437 -29 0
3036 -2913 -437 29 0
3036 -2913 3077 -1174 0
3036 -2913 -3077 1174 0
3036 -2913 1184 -11 0
3036 -2913 -1184 11 0
3036 -2913 2249 -2784 0
3036 -2913 -2249 2784 0
3036 2913 361 0
3036 2913 635 0
3036 2913 -2038 0
3036 2913 -1308 0
3036 2913 437 -635 0
3036 2913 -437 635 0
3036 2913 3077 -1308 0
3036 2913 -3077 1308 0
3036 2913 1184 -361 0
3036 2913 -1184 361 0
3036 2913 2249 -2038 0
3036 2913 -2249 2038 0
3036 3165 0
3036 992 -437 0
3036 -992 437 0
3036 594 -3077 0
3036 -594 3077 0
3036 747 -1184 0
3036 -747 1184 0
3036 699 -2249 0
3036 -699 2249 0
-2887 -247 -2977 0
-2887 -247 -1620 0
-2887 -247 -3081 0
-2887 -247 -2888 0
-2887 -247 2969 -1620 0
-2887 -247 -2969 1620 0
-2887 -247 406 -2888 0
-2887 -247 -406 2888 0
-2887 -247 2204 -2977 0
-2887 -247 -2204 2977 0
-2887 -247 447 -3081 0
-2887 -247 -447 3081 0
-2887 247 1054 0
-2887 247 1881 0
-2887 247 2246 0
-2887 247 3161 0
-2887 247 2969 -1881 0
-2887 247 -2969 1881 0
-2887 247 406 -3161 0
-2887 247 -406 3161 0
-2887 247 2204 -1054 0
-2887 247 -2204 1054 0
-2887 247 447 -2246 0
-2887 247 -447 2246 0
-2887 1231 0
-2887 1991 -2969 0
-2887 -1991 2969 0
-2887 680 -406 0
-2887 -680 406 0
-2887 2645 -2204 0
-2887 -2645 2204 0
-2887 2658 -447 0
-2887 -2658 447 0
2887 -195 -2896 0
2887 -195 -1379 0
2887 -195 2608 0
2887 -195 978 0
2887 -195 1954 -1379 0
2887 -195 -1954 1379 0
2887 -195 1959 -978 0
2887 -195 -1959 978 0
2887 -195 190 -2896 0
2887 -195 -190 2896 0
2887 -195 2462 -2608 0
2887 -195 -2462 2608 0
2887 195 2473 0
2887 195 1558 0
2887 195 -2022 0
2887 195 -2472 0
2887 195 1954 -1558 0
2887 195 -1954 1558 0
2887 195 1959 -2472 0
2887 195 -1959 2472 0
2887 195 190 -2473 0
2887 195 -190 2473 0
2887 195 2462 -2022 0
2887 195 -2462 2022 0
2887 2206 0
2887 1991 -1954 0
2887 -1991 1954 0
2887 680 -1959 0
2887 -680 1959 0
2887 2645 -190 0
2887 -2645 190 0
2887 2658 -2462 0
2887 -2658 2462 0
-3183 -1352 -1238 0
-3183 -1352 -960 0
-3183 -1352 -2129 0
-3183 -1352 -52 0
-3183 -1352 1264 -960 0
-3183 -1352 -1264 960 0
-3183 -1352 2083 -52 0
-3183 -1352 -2083 52 0
-3183 -1352 1365 -1238 0
-3183 -1352 -1365 1238 0
-3183 -1352 1634 -2129 0
-3183 -1352 -1634 2129 0
-3183 1352 2343 0
-3183 1352 3179 0
-3183 1352 1494 0
-3183 1352 2258 0
-3183 1352 1264 -3179 0
-3183 1352 -1264 3179 0
-3183 1352 2083 -2258 0
-3183 1352 -2083 2258 0
-3183 1352 1365 -2343 0
-3183 1352 -1365 2343 0
-3183 1352 1634 -1494 0
-3183 1352 -1634 1494 0
-3183 1177 0
-3183 588 -1264 0
-3183 -588 1264 0
-3183 1150 -2083 0
-3183 -1150 2083 0
-3183 2177 -1365 0
-3183 -2177 1365 0
-3183 342 -1634 0
-3183 -342 1634 0
3183 -1854 -1483 0
3183 -1854 -389 0
3183 -1854 1573 0
3183 -1854 2234 0
3183 -1854 2317 -389 0
3183 -1854 -2317 389 0
3183 -1854 2848 -2234 0
3183 -1854 -2848 2234 0
3183 -1854 128 -1483 0
3183 -1854 -128 1483 0
3183 -1854 2381 -1573 0
3183 -1854 -2381 1573 0
3183 1854 2506 0
3183 1854 1148 0
3183 1854 -677 0
3183 1854 -839 0
3183 1854 2317 -1148 0
3183 1854 -2317 1148 0
3183 1854 2848 -839 0
3183 1854 -2848 839 0
3183 1854 128 -2506 0
3183 1854 -128 2506 0
3183 1854 2381 -677 0
3183 1854 -2381 677 0
3183 459 0
3183 588 -2317 0
3183 -588 2317 0
3183 1150 -2848 0
3183 -1150 2848 0
3183 2177 -128 0
3183 -2177 128 0
3183 342 -2381 0
3183 -342 2381 0
-2729 -752 -1939 0
-2729 -752 -2018 0
-2729 -752 -2231 0
-2729 -752 -2498 0
-2729 -752 564 -2018 0
-2729 -752 -564 2018 0
-2729 -752 1301 -2498 0
-2729 -752 -1301 2498 0
-2729 -752 278 -1939 0
-2729 -752 -278 1939 0
-2729 -752 1339 -2231 0
-2729 -752 -1339 2231 0
-2729 752 1727 0
-2729 752 510 0
-2729 752 2825 0
-2729 752 2151 0
-2729 752 564 -510 0
-2729 752 -564 510 0
-2729 752 1301 -2151 0
-2729 752 -1301 2151 0
-2729 752 278 -1727 0
-2729 752 -278 1727 0
-2729 752 1339 -2825 0
-2729 752 -1339 2825 0
-2729 1479 0
-2729 1454 -564 0
-2729 -1454 564 0
-2729 2112 -1301 0
-2729 -2112 1301 0
-2729 588 -278 0
-2729 -588 278 0
-2729 1724 -1339 0
-2729 -1724 1339 0
2729 -806 -481 0
2729 -806 -1433 0
2729 -806 638 0
2729 -806 211 0
2729 -806 1679 -1433 0
2729 -806 -1679 1433 0
2729 -806 2950 -211 0
2729 -806 -2950 211 0
2729 -806 2522 -481 0
2729 -806 -2522 481 0
2729 -806 623 -638 0
2729 -806 -623 638 0
2729 806 1327 0
2729 806 3134 0
2729 806 -1004 0
2729 806 -907 0
2729 806 1679 -3134 0
2729 806 -1679 3134 0
2729 806 2950 -907 0
2729 806 -2950 907 0
2729 806 2522 -1327 0
2729 806 -2522 1327 0
2729 806 623 -1004 0
2729 806 -623 1004 0
2729 1694 0
2729 1454 -1679 0
2729 -1454 1679 0
2729 2112 -2950 0
2729 -2112 2950 0
2729 588 -2522 0
2729 -588 2522 0
2729 1724 -623 0
2729 -1724 623 0
-2886 -41 -2173 0
-2886 -41 -2708 0
-2886 -41 -2452 0
-2886 -41 -2919 0
-2886 -41 1258 -2708 0
-2886 -41 -1258 2708 0
-2886 -41 2761 -2919 0
-2886 -41 -2761 2919 0
-2886 -41 1341 -2173 0
-2886 -41 -1341 2173 0
-2886 -41 1408 -2452 0
-2886 -41 -1408 2452 0
-2886 41 2138 0
-2886 41 2244 0
-2886 41 3028 0
-2886 41 2851 0
-2886 41 1258 -2244 0
-2886 41 -1258 2244 0
-2886 41 2761 -2851 0
-2886 41 -2761 2851 0
-2886 41 1341 -2138 0
-2886 41 -1341 2138 0
-2886 41 1408 -3028 0
-2886 41 -1408 3028 0
-2886 791 0
-2886 2796 -1258 0
-2886 -2796 1258 0
-2886 1785 -2761 0
-2886 -1785 2761 0
-2886 1454 -1341 0
-2886 -1454 1341 0
-2886 1183 -1408 0
-2886 -1183 1408 0
2886 -571 -1908 0
2886 -571 -2171 0
2886 -571 654 0
2886 -571 1142 0
2886 -571 2587 -2171 0
2886 -571 -2587 2171 0
2886 -571 1155 -1142 0
2886 -571 -1155 1142 0
2886 -571 2931 -1908 0
2886 -571 -2931 1908 0
2886 -571 830 -654 0
2886 -571 -830 654 0
2886 571 1215 0
2886 571 462 0
2886 571 -2322 0
2886 571 -1425 0
2886 571 2587 -462 0
2886 571 -2587 462 0
2886 571 1155 -1425 0
2886 571 -1155 1425 0
2886 571 2931 -1215 0
2886 571 -2931 1215 0
2886 571 830 -2322 0
2886 571 -830 2322 0
2886 649 0
2886 2796 -2587 0
2886 -2796 2587 0
2886 1785 -1155 0
2886 -1785 1155 0
2886 1454 -2931 0
2886 -1454 2931 0
2886 1183 -830 0
2886 -1183 830 0
-2275 -1923 -241 0
-2275 -1923 -1578 0
-2275 -1923 -1616 0
-2275 -1923 -2811 0
-2275 -1923 2508 -1578 0
-2275 -1923 -2508 1578 0
-2275 -1923 539 -2811 0
-2275 -1923 -539 2811 0
-2275 -1923 3115 -241 0
-2275 -1923 -3115 241 0
-2275 -1923 1111 -1616 0
-2275 -1923 -1111 1616 0
-2275 1923 2363 0
-2275 1923 455 0
-2275 1923 171 0
-2275 1923 1034 0
-2275 1923 2508 -455 0
-2275 1923 -2508 455 0
-2275 1923 539 -1034 0
-2275 1923 -539 1034 0
-2275 1923 3115 -2363 0
-2275 1923 -3115 2363 0
-2275 1923 1111 -171 0
-2275 1923 -1111 171 0
-2275 1006 0
-2275 2155 -2508 0
-2275 -2155 2508 0
-2275 1579 -539 0
-2275 -1579 539 0
-2275 1150 -3115 0
-2275 -1150 3115 0
-2275 2471 -1111 0
-2275 -2471 1111 0
2275 -672 -663 0
2275 -672 -955 0
2275 -672 878 0
2275 -672 2442 0
2275 -672 951 -955 0
2275 -672 -951 955 0
2275 -672 1462 -2442 0
2275 -672 -1462 2442 0
2275 -672 2015 -663 0
2275 -672 -2015 663 0
2275 -672 867 -878 0
2275 -672 -867 878 0
2275 672 2367 0
2275 672 347 0
2275 672 -1403 0
2275 672 -2136 0
2275 672 951 -347 0
2275 672 -951 347 0
2275 672 1462 -2136 0
2275 672 -1462 2136 0
2275 672 2015 -2367 0
2275 672 -2015 2367 0
2275 672 867 -1403 0
2275 672 -867 1403 0
2275 473 0
2275 2155 -951 0
2275 -2155 951 0
2275 1579 -1462 0
2275 -1579 1462 0
2275 1150 -2015 0
2275 -1150 2015 0
2275 2471 -867 0
2275 -2471 867 0
-2493 -1878 -1961 0
-2493 -1878 -147 0
-2493 -1878 -2405 0
-2493 -1878 -935 0
-2493 -1878 2602 -147 0
-2493 -1878 -2602 147 0
-2493 -1878 3076 -935 0
-2493 -1878 -3076 935 0
-2493 -1878 2445 -1961 0
-2493 -1878 -2445 1961 0
-2493 -1878 1130 -2405 0
-2493 -1878 -1130 2405 0
-2493 1878 1297 0
-2493 1878 3045 0
-2493 1878 3080 0
-2493 1878 1414 0
-2493 1878 2602 -3045 0
-2493 1878 -2602 3045 0
-2493 1878 3076 -1414 0
-2493 1878 -3076 1414 0
-2493 1878 2445 -1297 0
-2493 1878 -2445 1297 0
-2493 1878 1130 -3080 0
-2493 1878 -1130 3080 0
-2493 2620 0
-2493 2074 -2602 0
-2493 -2074 2602 0
-2493 2146 -3076 0
-2493 -2146 3076 0
-2493 2155 -2445 0
-2493 -2155 2445 0
-2493 396 -1130 0
-2493 -396 1130 0
2493 -2627 -2809 0
2493 -2627 -1450 0
2493 -2627 3187 0
2493 -2627 49 0
2493 -2627 1342 -1450 0
2493 -2627 -1342 1450 0
2493 -2627 1106 -49 0
2493 -2627 -1106 49 0
2493 -2627 1053 -2809 0
2493 -2627 -1053 2809 0
2493 -2627 2123 -3187 0
2493 -2627 -2123 3187 0
2493 2627 2801 0
2493 2627 1709 0
2493 2627 -67 0
2493 2627 -538 0
2493 2627 1342 -1709 0
2493 2627 -1342 1709 0
2493 2627 1106 -538 0
2493 2627 -1106 538 0
2493 2627 1053 -2801 0
2493 2627 -1053 2801 0
2493 2627 2123 -67 0
2493 2627 -2123 67 0
2493 3154 0
2493 2074 -1342 0
2493 -2074 1342 0
2493 2146 -1106 0
2493 -2146 1106 0
2493 2155 -1053 0
2493 -2155 1053 0
2493 396 -2123 0
2493 -396 2123 0
-1766 -570 -1438 0
-1766 -570 -1833 0
-1766 -570 -2233 0
-1766 -570 -2093 0
-1766 -570 1014 -1833 0
-1766 -570 -1014 1833 0
-1766 -570 2551 -2093 0
-1766 -570 -2551 2093 0
-1766 -570 3191 -1438 0
-1766 -570 -3191 1438 0
-1766 -570 2235 -2233 0
-1766 -570 -2235 2233 0
-1766 570 2478 0
-1766 570 149 0
-1766 570 1203 0
-1766 570 551 0
-1766 570 1014 -149 0
-1766 570 -1014 149 0
-1766 570 2551 -551 0
-1766 570 -2551 551 0
-1766 570 3191 -2478 0
-1766 570 -3191 2478 0
-1766 570 2235 -1203 0
-1766 570 -2235 1203 0
-1766 2067 0
-1766 2352 -1014 0
-1766 -2352 1014 0
-1766 1506 -2551 0
-1766 -1506 2551 0
-1766 2074 -3191 0
-1766 -2074 3191 0
-1766 1650 -2235 0
-1766 -1650 2235 0
1766 -2665 -3107 0
1766 -2665 -785 0
1766 -2665 1730 0
1766 -2665 972 0
1766 -2665 1566 -785 0
1766 -2665 -1566 785 0
1766 -2665 1481 -972 0
1766 -2665 -1481 972 0
1766 -2665 3058 -3107 0
1766 -2665 -3058 3107 0
1766 -2665 2549 -1730 0
1766 -2665 -2549 1730 0
1766 2665 1133 0
1766 2665 2191 0
1766 2665 -1364 0
1766 2665 -185 0
1766 2665 1566 -2191 0
1766 2665 -1566 2191 0
1766 2665 1481 -185 0
1766 2665 -1481 185 0
1766 2665 3058 -1133 0
1766 2665 -3058 1133 0
1766 2665 2549 -1364 0
1766 2665 -2549 1364 0
1766 854 0
1766 2352 -1566 0
1766 -2352 1566 0
1766 1506 -1481 0
1766 -1506 1481 0
1766 2074 -3058 0
1766 -2074 3058 0
1766 1650 -2549 0
1766 -1650 2549 0
-3129 -755 -2731 0
-3129 -755 -681 0
-3129 -755 -1987 0
-3129 -755 -2110 0
-3129 -755 2669 -681 0
-3129 -755 -2669 681 0
-3129 -755 2814 -2110 0
-3129 -755 -2814 2110 0
-3129 -755 2361 -2731 0
-3129 -755 -2361 2731 0
-3129 -755 2286 -1987 0
-3129 -755 -2286 1987 0
-3129 755 3027 0
-3129 755 1210 0
-3129 755 1002 0
-3129 755 795 0
-3129 755 2669 -1210 0
-3129 755 -2669 1210 0
-3129 755 2814 -795 0
-3129 755 -2814 795 0
-3129 755 2361 -3027 0
-3129 755 -2361 3027 0
-3129 755 2286 -1002 0
-3129 755 -2286 1002 0
-3129 2459 0
-3129 1011 -2669 0
-3129 -1011 2669 0
-3129 1302 -2814 0
-3129 -1302 2814 0
-3129 325 -2361 0
-3129 -325 2361 0
-3129 534 -2286 0
-3129 -534 2286 0
3129 -105 -2546 0
3129 -105 -2819 0
3129 -105 133 0
3129 -105 1500 0
3129 -105 3186 -2819 0
3129 -105 -3186 2819 0
3129 -105 2449 -1500 0
3129 -105 -2449 1500 0
3129 -105 2597 -2546 0
3129 -105 -2597 2546 0
3129 -105 2051 -133 0
3129 -105 -2051 133 0
3129 105 1439 0
3129 105 1287 0
3129 105 -1775 0
3129 105 -398 0
3129 105 3186 -1287 0
3129 105 -3186 1287 0
3129 105 2449 -398 0
3129 105 -2449 398 0
3129 105 2597 -1439 0
3129 105 -2597 1439 0
3129 105 2051 -1775 0
3129 105 -2051 1775 0
3129 689 0
3129 1011 -3186 0
3129 -1011 3186 0
3129 1302 -2449 0
3129 -1302 2449 0
3129 325 -2597 0
3129 -325 2597 0
3129 534 -2051 0
3129 -534 2051 0
-2193 -1547 -812 0
-2193 -1547 -735 0
-2193 -1547 -2458 0
-2193 -1547 -1783 0
-2193 -1547 923 -735 0
-2193 -1547 -923 735 0
-2193 -1547 590 -1783 0
-2193 -1547 -590 1783 0
-2193 -1547 2847 -812 0
-2193 -1547 -2847 812 0
-2193 -1547 1419 -2458 0
-2193 -1547 -1419 2458 0
-2193 1547 1217 0
-2193 1547 286 0
-2193 1547 2903 0
-2193 1547 790 0
-2193 1547 923 -286 0
-2193 1547 -923 286 0
-2193 1547 590 -790 0
-2193 1547 -590 790 0
-2193 1547 2847 -1217 0
-2193 1547 -2847 1217 0
-2193 1547 1419 -2903 0
-2193 1547 -1419 2903 0
-2193 500 0
-2193 918 -923 0
-2193 -918 923 0
-2193 1315 -590 0
-2193 -1315 590 0
-2193 1011 -2847 0
-2193 -1011 2847 0
-2193 472 -1419 0
-2193 -472 1419 0
2193 -2702 -242 0
2193 -2702 -2329 0
2193 -2702 2308 0
2193 -2702 3026 0
2193 -2702 2481 -2329 0
2193 -2702 -2481 2329 0
2193 -2702 489 -3026 0
2193 -2702 -489 3026 0
2193 -2702 1687 -242 0
2193 -2702 -1687 242 0
2193 -2702 36 -2308 0
2193 -2702 -36 2308 0
2193 2702 666 0
2193 2702 858 0
2193 2702 -2412 0
2193 2702 -1136 0
2193 2702 2481 -858 0
2193 2702 -2481 858 0
2193 2702 489 -1136 0
2193 2702 -489 1136 0
2193 2702 1687 -666 0
2193 2702 -1687 666 0
2193 2702 36 -2412 0
2193 2702 -36 2412 0
2193 298 0
2193 918 -2481 0
2193 -918 2481 0
2193 1315 -489 0
2193 -1315 489 0
2193 1011 -1687 0
2193 -1011 1687 0
2193 472 -36 0
2193 -472 36 0
-2545 -2718 -1958 0
-2545 -2718 -7 0
-2545 -2718 -2795 0
-2545 -2718 -1996 0
-2545 -2718 2943 -7 0
-2545 -2718 -2943 7 0
-2545 -2718 2031 -1996 0
-2545 -2718 -2031 1996 0
-2545 -2718 181 -1958 0
-2545 -2718 -181 1958 0
-2545 -2718 3050 -2795 0
-2545 -2718 -3050 2795 0
-2545 2718 2300 0
-2545 2718 327 0
-2545 2718 1409 0
-2545 2718 1552 0
-2545 2718 2943 -327 0
-2545 2718 -2943 327 0
-2545 2718 2031 -1552 0
-2545 2718 -2031 1552 0
-2545 2718 181 -2300 0
-2545 2718 -181 2300 0
-2545 2718 3050 -1409 0
-2545 2718 -3050 1409 0
-2545 305 0
-2545 3099 -2943 0
-2545 -3099 2943 0
-2545 1554 -2031 0
-2545 -1554 2031 0
-2545 3141 -181 0
-2545 -3141 181 0
-2545 244 -3050 0
-2545 -244 3050 0
2545 -796 -2468 0
2545 -796 -3022 0
2545 -796 2758 0
2545 -796 273 0
2545 -796 1504 -3022 0
2545 -796 -1504 3022 0
2545 -796 2934 -273 0
2545 -796 -2934 273 0
2545 -796 3103 -2468 0
2545 -796 -3103 2468 0
2545 -796 3095 -2758 0
2545 -796 -3095 2758 0
2545 796 1411 0
2545 796 3163 0
2545 796 -402 0
2545 796 -2195 0
2545 796 1504 -3163 0
2545 796 -1504 3163 0
2545 796 2934 -2195 0
2545 796 -2934 2195 0
2545 796 3103 -1411 0
2545 796 -3103 1411 0
2545 796 3095 -402 0
2545 796 -3095 402 0
2545 2365 0
2545 3099 -1504 0
2545 -3099 1504 0
2545 1554 -2934 0
2545 -1554 2934 0
2545 3141 -3103 0
2545 -3141 3103 0
2545 244 -3095 0
2545 -244 3095 0
-183 -421 -533 0
-183 -421 -1722 0
-183 -421 -1534 0
-183 -421 -2609 0
-183 -421 2252 -1722 0
-183 -421 -2252 1722 0
-183 -421 1460 -2609 0
-183 -421 -1460 2609 0
-183 -421 1228 -533 0
-183 -421 -1228 533 0
-183 -421 1127 -1534 0
-183 -421 -1127 1534 0
-183 421 2720 0
-183 421 1253 0
-183 421 62 0
-183 421 2262 0
-183 421 2252 -1253 0
-183 421 -2252 1253 0
-183 421 1460 -2262 0
-183 421 -1460 2262 0
-183 421 1228 -2720 0
-183 421 -1228 2720 0
-183 421 1127 -62 0
-183 421 -1127 62 0
-183 2684 0
-183 2017 -2252 0
-183 -2017 2252 0
-183 970 -1460 0
-183 -970 1460 0
-183 3099 -1228 0
-183 -3099 1228 0
-183 2855 -1127 0
-183 -2855 1127 0
183 -3040 -798 0
183 -3040 -1250 0
183 -3040 3180 0
183 -3040 1663 0
183 -3040 2865 -1250 0
183 -3040 -2865 1250 0
183 -3040 1300 -1663 0
183 -3040 -1300 1663 0
183 -3040 45 -798 0
183 -3040 -45 798 0
183 -3040 1632 -3180 0
183 -3040 -1632 3180 0
183 3040 208 0
183 3040 732 0
183 3040 -1314 0
183 3040 -2161 0
183 3040 2865 -732 0
183 3040 -2865 732 0
183 3040 1300 -2161 0
183 3040 -1300 2161 0
183 3040 45 -208 0
183 3040 -45 208 0
183 3040 1632 -1314 0
183 3040 -1632 1314 0
183 2747 0
183 2017 -2865 0
183 -2017 2865 0
183 970 -1300 0
183 -970 1300 0
183 3099 -45 0
183 -3099 45 0
183 2855 -1632 0
183 -2855 1632 0
-2042 -1330 -2046 0
-2042 -1330 -2149 0
-2042 -1330 -1748 0
-2042 -1330 -28 0
-2042 -1330 2517 -2149 0
-2042 -1330 -2517 2149 0
-2042 -1330 3124 -28 0
-2042 -1330 -3124 28 0
-2042 -1330 2557 -2046 0
-2042 -1330 -2557 2046 0
-2042 -1330 1389 -1748 0
-2042 -1330 -1389 1748 0
-2042 1330 150 0
-2042 1330 2419 0
-2042 1330 1075 0
-2042 1330 19 0
-2042 1330 2517 -2419 0
-2042 1330 -2517 2419 0
-2042 1330 3124 -19 0
-2042 1330 -3124 19 0
-2042 1330 2557 -150 0
-2042 1330 -2557 150 0
-2042 1330 1389 -1075 0
-2042 1330 -1389 1075 0
-2042 1052 0
-2042 2970 -2517 0
-2042 -2970 2517 0
-2042 833 -3124 0
-2042 -833 3124 0
-2042 43 -2557 0
-2042 -43 2557 0
-2042 594 -1389 0
-2042 -594 1389 0
2042 -632 -1657 0
2042 -632 -1464 0
2042 -632 2603 0
2042 -632 236 0
2042 -632 548 -1464 0
2042 -632 -548 1464 0
2042 -632 1828 -236 0
2042 -632 -1828 236 0
2042 -632 1457 -1657 0
2042 -632 -1457 1657 0
2042 -632 2220 -2603 0
2042 -632 -2220 2603 0
2042 632 2694 0
2042 632 2085 0
2042 632 -2699 0
2042 632 -1894 0
2042 632 548 -2085 0
2042 632 -548 2085 0
2042 632 1828 -1894 0
2042 632 -1828 1894 0
2042 632 1457 -2694 0
2042 632 -1457 2694 0
2042 632 2220 -2699 0
2042 632 -2220 2699 0
2042 3018 0
2042 2970 -548 0
2042 -2970 548 0
2042 833 -1828 0
2042 -833 1828 0
2042 43 -1457 0
2042 -43 1457 0
2042 594 -2220 0
2042 -594 2220 0
-138 -1161 -1307 0
-138 -1161 -1064 0
-138 -1161 -1164 0
-138 -1161 -2172 0
-138 -1161 1198 -1064 0
-138 -1161 -1198 1064 0
-138 -1161 1242 -2172 0
-138 -1161 -1242 2172 0
-138 -1161 843 -1307 0
-138 -1161 -843 1307 0
-138 -1161 553 -1164 0
-138 -1161 -553 1164 0
-138 1161 44 0
-138 1161 143 0
-138 1161 2272 0
-138 1161 1641 0
-138 1161 1198 -143 0
-138 1161 -1198 143 0
-138 1161 1242 -1641 0
-138 1161 -1242 1641 0
-138 1161 843 -44 0
-138 1161 -843 44 0
-138 1161 553 -2272 0
-138 1161 -553 2272 0
-138 1690 0
-138 493 -1198 0
-138 -493 1198 0
-138 1587 -1242 0
-138 -1587 1242 0
-138 2970 -843 0
-138 -2970 843 0
-138 2466 -553 0
-138 -2466 553 0
138 -609 -207 0
138 -609 -2333 0
138 -609 1514 0
138 -609 293 0
138 -609 334 -2333 0
138 -609 -334 2333 0
138 -609 2289 -293 0
138 -609 -2289 293 0
138 -609 2688 -207 0
138 -609 -2688 207 0
138 -609 1994 -1514 0
138 -609 -1994 1514 0
138 609 264 0
138 609 2730 0
138 609 -2070 0
138 609 -717 0
138 609 334 -2730 0
138 609 -334 2730 0
138 609 2289 -717 0
138 609 -2289 717 0
138 609 2688 -264 0
138 609 -2688 264 0
138 609 1994 -2070 0
138 609 -1994 2070 0
138 131 0
138 493 -334 0
138 -493 334 0
138 1587 -2289 0
138 -1587 2289 0
138 2970 -2688 0
138 -2970 2688 0
138 2466 -1994 0
138 -2466 1994 0
-1018 -122 -385 0
-1018 -122 -2393 0
-1018 -122 -599 0
-1018 -122 -3046 0
-1018 -122 2332 -2393 0
-1018 -122 -2332 2393 0
-1018 -122 2222 -3046 0
-1018 -122 -2222 3046 0
-1018 -122 1239 -385 0
-1018 -122 -1239 385 0
-1018 -122 987 -599 0
-1018 -122 -987 599 0
-1018 122 109 0
-1018 122 1431 0
-1018 122 2582 0
-1018 122 2648 0
-1018 122 2332 -1431 0
-1018 122 -2332 1431 0
-1018 122 2222 -2648 0
-1018 122 -2222 2648 0
-1018 122 1239 -109 0
-1018 122 -1239 109 0
-1018 122 987 -2582 0
-1018 122 -987 2582 0
-1018 2750 0
-1018 1664 -2332 0
-1018 -1664 2332 0
-1018 1124 -2222 0
-1018 -1124 2222 0
-1018 493 -1239 0
-1018 -493 1239 0
-1018 970 -987 0
-1018 -970 987 0
1018 -2355 -168 0
1018 -2355 -829 0
1018 -2355 939 0
1018 -2355 1910 0
1018 -2355 816 -829 0
1018 -2355 -816 829 0
1018 -2355 1942 -1910 0
1018 -2355 -1942 1910 0
1018 -2355 323 -168 0
1018 -2355 -323 168 0
1018 -2355 1233 -939 0
1018 -2355 -1233 939 0
1018 2355 390 0
1018 2355 1452 0
1018 2355 -2450 0
1018 2355 -1975 0
1018 2355 816 -1452 0
1018 2355 -816 1452 0
1018 2355 1942 -1975 0
1018 2355 -1942 1975 0
1018 2355 323 -390 0
1018 2355 -323 390 0
1018 2355 1233 -2450 0
1018 2355 -1233 2450 0
1018 72 0
1018 1664 -816 0
1018 -1664 816 0
1018 1124 -1942 0
1018 -1124 1942 0
1018 493 -323 0
1018 -493 323 0
1018 970 -1233 0
1018 -970 1233 0
-1787 -3016 -3116 0
-1787 -3016 -1692 0
-1787 -3016 -3123 0
-1787 -3016 -127 0
-1787 -3016 2409 -1692 0
-1787 -3016 -2409 1692 0
-1787 -3016 2477 -127 0
-1787 -3016 -2477 127 0
-1787 -3016 2788 -3116 0
-1787 -3016 -2788 3116 0
-1787 -3016 2495 -3123 0
-1787 -3016 -2495 3123 0
-1787 3016 1322 0
-1787 3016 1360 0
-1787 3016 2273 0
-1787 3016 622 0
-1787 3016 2409 -1360 0
-1787 3016 -2409 1360 0
-1787 3016 2477 -622 0
-1787 3016 -2477 622 0
-1787 3016 2788 -1322 0
-1787 3016 -2788 1322 0
-1787 3016 2495 -2273 0
-1787 3016 -2495 2273 0
-1787 2575 0
-1787 2020 -2409 0
-1787 -2020 2409 0
-1787 461 -2477 0
-1787 -461 2477 0
-1787 1664 -2788 0
-1787 -1664 2788 0
-1787 1484 -2495 0
-1787 -1484 2495 0
1787 -2 -2754 0
1787 -2 -1838 0
1787 -2 2167 0
1787 -2 1693 0
1787 -2 3041 -1838 0
1787 -2 -3041 1838 0
1787 -2 1862 -1693 0
1787 -2 -1862 1693 0
1787 -2 2985 -2754 0
1787 -2 -2985 2754 0
1787 -2 2212 -2167 0
1787 -2 -2212 2167 0
1787 2 2330 0
1787 2 266 0
1787 2 -2055 0
1787 2 -2353 0
1787 2 3041 -266 0
1787 2 -3041 266 0
1787 2 1862 -2353 0
1787 2 -1862 2353 0
1787 2 2985 -2330 0
1787 2 -2985 2330 0
1787 2 2212 -2055 0
1787 2 -2212 2055 0
1787 782 0
1787 2020 -3041 0
1787 -2020 3041 0
1787 461 -1862 0
1787 -461 1862 0
1787 1664 -2985 0
1787 -1664 2985 0
1787 1484 -2212 0
1787 -1484 2212 0
-3070 -580 -1375 0
-3070 -580 -836 0
-3070 -580 -3106 0
-3070 -580 -1374 0
-3070 -580 158 -836 0
-3070 -580 -158 836 0
-3070 -580 1904 -1374 0
-3070 -580 -1904 1374 0
-3070 -580 2315 -1375 0
-3070 -580 -2315 1375 0
-3070 -580 1946 -3106 0
-3070 -580 -1946 3106 0
-3070 580 25 0
-3070 580 541 0
-3070 580 1026 0
-3070 580 1284 0
-3070 580 158 -541 0
-3070 580 -158 541 0
-3070 580 1904 -1284 0
-3070 580 -1904 1284 0
-3070 580 2315 -25 0
-3070 580 -2315 25 0
-3070 580 1946 -1026 0
-3070 580 -1946 1026 0
-3070 2951 0
-3070 2284 -158 0
-3070 -2284 158 0
-3070 3038 -1904 0
-3070 -3038 1904 0
-3070 2020 -2315 0
-3070 -2020 2315 0
-3070 1476 -1946 0
-3070 -1476 1946 0
3070 -2324 -875 0
3070 -2324 -2769 0
3070 -2324 725 0
3070 -2324 1896 0
3070 -2324 986 -2769 0
3070 -2324 -986 2769 0
3070 -2324 2583 -1896 0
3070 -2324 -2583 1896 0
3070 -2324 723 -875 0
3070 -2324 -723 875 0
3070 -2324 2852 -725 0
3070 -2324 -2852 725 0
3070 2324 562 0
3070 2324 2800 0
3070 2324 -126 0
3070 2324 -268 0
3070 2324 986 -2800 0
3070 2324 -986 2800 0
3070 2324 2583 -268 0
3070 2324 -2583 268 0
3070 2324 723 -562 0
3070 2324 -723 562 0
3070 2324 2852 -126 0
3070 2324 -2852 126 0
3070 714 0
3070 2284 -986 0
3070 -2284 986 0
3070 3038 -2583 0
3070 -3038 2583 0
3070 2020 -723 0
3070 -2020 723 0
3070 1476 -2852 0
3070 -1476 2852 0
-2413 -2114 -2641 0
-2413 -2114 -162 0
-2413 -2114 -22 0
-2413 -2114 -2885 0
-2413 -2114 3168 -162 0
-2413 -2114 -3168 162 0
-2413 -2114 1152 -2885 0
-2413 -2114 -1152 2885 0
-2413 -2114 2420 -2641 0
-2413 -2114 -2420 2641 0
-2413 -2114 2553 -22 0
-2413 -2114 -2553 22 0
-2413 2114 1853 0
-2413 2114 1046 0
-2413 2114 377 0
-2413 2114 2560 0
-2413 2114 3168 -1046 0
-2413 2114 -3168 1046 0
-2413 2114 1152 -2560 0
-2413 2114 -1152 2560 0
-2413 2114 2420 -1853 0
-2413 2114 -2420 1853 0
-2413 2114 2553 -377 0
-2413 2114 -2553 377 0
-2413 2815 0
-2413 55 -3168 0
-2413 -55 3168 0
-2413 2871 -1152 0
-2413 -2871 1152 0
-2413 2284 -2420 0
-2413 -2284 2420 0
-2413 2661 -2553 0
-2413 -2661 2553 0
2413 -2323 -1157 0
2413 -2323 -2831 0
2413 -2323 3060 0
2413 -2323 692 0
2413 -2323 697 -2831 0
2413 -2323 -697 2831 0
2413 -2323 682 -692 0
2413 -2323 -682 692 0
2413 -2323 1185 -1157 0
2413 -2323 -1185 1157 0
2413 -2323 578 -3060 0
2413 -2323 -578 3060 0
2413 2323 606 0
2413 2323 186 0
2413 2323 -2610 0
2413 2323 -414 0
2413 2323 697 -186 0
2413 2323 -697 186 0
2413 2323 682 -414 0
2413 2323 -682 414 0
2413 2323 1185 -606 0
2413 2323 -1185 606 0
2413 2323 578 -2610 0
2413 2323 -578 2610 0
2413 1406 0
2413 55 -697 0
2413 -55 697 0
2413 2871 -682 0
2413 -2871 682 0
2413 2284 -1185 0
2413 -2284 1185 0
2413 2661 -578 0
2413 -2661 578 0
-2189 -2494 -248 0
-2189 -2494 -2094 0
-2189 -2494 -712 0
-2189 -2494 -2703 0
-2189 -2494 2465 -2094 0
-2189 -2494 -2465 2094 0
-2189 -2494 2148 -2703 0
-2189 -2494 -2148 2703 0
-2189 -2494 136 -248 0
-2189 -2494 -136 248 0
-2189 -2494 1831 -712 0
-2189 -2494 -1831 712 0
-2189 2494 240 0
-2189 2494 1200 0
-2189 2494 1223 0
-2189 2494 943 0
-2189 2494 2465 -1200 0
-2189 2494 -2465 1200 0
-2189 2494 2148 -943 0
-2189 2494 -2148 943 0
-2189 2494 136 -240 0
-2189 2494 -136 240 0
-2189 2494 1831 -1223 0
-2189 2494 -1831 1223 0
-2189 3182 0
-2189 1617 -2465 0
-2189 -1617 2465 0
-2189 415 -2148 0
-2189 -415 2148 0
-2189 320 -136 0
-2189 -320 136 0
-2189 1385 -1831 0
-2189 -1385 1831 0
2189 -203 -5 0
2189 -203 -1345 0
2189 -203 2568 0
2189 -203 58 0
2189 -203 2600 -1345 0
2189 -203 -2600 1345 0
2189 -203 1472 -58 0
2189 -203 -1472 58 0
2189 -203 1098 -5 0
2189 -203 -1098 5 0
2189 -203 1768 -2568 0
2189 -203 -1768 2568 0
2189 203 2225 0
2189 203 2049 0
2189 203 -776 0
2189 203 -2399 0
2189 203 2600 -2049 0
2189 203 -2600 2049 0
2189 203 1472 -2399 0
2189 203 -1472 2399 0
2189 203 1098 -2225 0
2189 203 -1098 2225 0
2189 203 1768 -776 0
2189 203 -1768 776 0
2189 2741 0
2189 1617 -2600 0
2189 -1617 2600 0
2189 415 -1472 0
2189 -415 1472 0
2189 320 -1098 0
2189 -320 1098 0
2189 1385 -1768 0
2189 -1385 1768 0
-1049 -1969 -657 0
-1049 -1969 -748 0
-1049 -1969 -2640 0
-1049 -1969 -2850 0
-1049 -1969 1480 -748 0
-1049 -1969 -1480 748 0
-1049 -1969 2713 -2850 0
-1049 -1969 -2713 2850 0
-1049 -1969 2491 -657 0
-1049 -1969 -2491 657 0
-1049 -1969 563 -2640 0
-1049 -1969 -563 2640 0
-1049 1969 1521 0
-1049 1969 1156 0
-1049 1969 1842 0
-1049 1969 1079 0
-1049 1969 1480 -1156 0
-1049 1969 -1480 1156 0
-1049 1969 2713 -1079 0
-1049 1969 -2713 1079 0
-1049 1969 2491 -1521 0
-1049 1969 -2491 1521 0
-1049 1969 563 -1842 0
-1049 1969 -563 1842 0
-1049 280 0
-1049 107 -1480 0
-1049 -107 1480 0
-1049 1978 -2713 0
-1049 -1978 2713 0
-1049 1617 -2491 0
-1049 -1617 2491 0
-1049 896 -563 0
-1049 -896 563 0
1049 -2095 -1815 0
1049 -2095 -2132 0
1049 -2095 1773 0
1049 -2095 544 0
1049 -2095 1388 -2132 0
1049 -2095 -1388 2132 0
1049 -2095 1422 -544 0
1049 -2095 -1422 544 0
1049 -2095 1311 -1815 0
1049 -2095 -1311 1815 0
1049 -2095 2347 -1773 0
1049 -2095 -2347 1773 0
1049 2095 1103 0
1049 2095 2366 0
1049 2095 -2303 0
1049 2095 -1021 0
1049 2095 1388 -2366 0
1049 2095 -1388 2366 0
1049 2095 1422 -1021 0
1049 2095 -1422 1021 0
1049 2095 1311 -1103 0
1049 2095 -1311 1103 0
1049 2095 2347 -2303 0
1049 2095 -2347 2303 0
1049 1624 0
1049 107 -1388 0
1049 -107 1388 0
1049 1978 -1422 0
1049 -1978 1422 0
1049 1617 -1311 0
1049 -1617 1311 0
1049 896 -2347 0
1049 -896 2347 0
-535 -1735 -3066 0
-535 -1735 -328 0
-535 -1735 -777 0
-535 -1735 -2525 0
-535 -1735 301 -328 0
-535 -1735 -301 328 0
-535 -1735 2798 -2525 0
-535 -1735 -2798 2525 0
-535 -1735 2169 -3066 0
-535 -1735 -2169 3066 0
-535 -1735 1577 -777 0
-535 -1735 -1577 777 0
-535 1735 1212 0
-535 1735 1171 0
-535 1735 425 0
-535 1735 1806 0
-535 1735 301 -1171 0
-535 1735 -301 1171 0
-535 1735 2798 -1806 0
-535 1735 -2798 1806 0
-535 1735 2169 -1212 0
-535 1735 -2169 1212 0
-535 1735 1577 -425 0
-535 1735 -1577 425 0
-535 2417 0
-535 2566 -301 0
-535 -2566 301 0
-535 861 -2798 0
-535 -861 2798 0
-535 107 -2169 0
-535 -107 2169 0
-535 1315 -1577 0
-535 -1315 1577 0
535 -1316 -1789 0
535 -1316 -1430 0
535 -1316 1219 0
535 -1316 2513 0
535 -1316 707 -1430 0
535 -1316 -707 1430 0
535 -1316 713 -2513 0
535 -1316 -713 2513 0
535 -1316 1418 -1789 0
535 -1316 -1418 1789 0
535 -1316 1525 -1219 0
535 -1316 -1525 1219 0
535 1316 2152 0
535 1316 427 0
535 1316 -2692 0
535 1316 -405 0
535 1316 707 -427 0
535 1316 -707 427 0
535 1316 713 -405 0
535 1316 -713 405 0
535 1316 1418 -2152 0
535 1316 -1418 2152 0
535 1316 1525 -2692 0
535 1316 -1525 2692 0
535 2007 0
535 2566 -707 0
535 -2566 707 0
535 861 -713 0
535 -861 713 0
535 107 -1418 0
535 -107 1418 0
535 1315 -1525 0
535 -1315 1525 0
-1445 -803 -2637 0
-1445 -803 -2057 0
-1445 -803 -2755 0
-1445 -803 -1825 0
-1445 -803 1110 -2057 0
-1445 -803 -1110 2057 0
-1445 -803 1532 -1825 0
-1445 -803 -1532 1825 0
-1445 -803 229 -2637 0
-1445 -803 -229 2637 0
-1445 -803 906 -2755 0
-1445 -803 -906 2755 0
-1445 803 1226 0
-1445 803 1739 0
-1445 803 1875 0
-1445 803 528 0
-1445 803 1110 -1739 0
-1445 803 -1110 1739 0
-1445 803 1532 -528 0
-1445 803 -1532 528 0
-1445 803 229 -1226 0
-1445 803 -229 1226 0
-1445 803 906 -1875 0
-1445 803 -906 1875 0
-1445 226 0
-1445 1497 -1110 0
-1445 -1497 1110 0
-1445 3127 -1532 0
-1445 -3127 1532 0
-1445 429 -229 0
-1445 -429 229 0
-1445 1665 -906 0
-1445 -1665 906 0
1445 -998 -601 0
1445 -998 -1269 0
1445 -998 123 0
1445 -998 1394 0
1445 -998 1392 -1269 0
1445 -998 -1392 1269 0
1445 -998 573 -1394 0
1445 -998 -573 1394 0
1445 -998 1604 -601 0
1445 -998 -1604 601 0
1445 -998 3074 -123 0
1445 -998 -3074 123 0
1445 998 526 0
1445 998 946 0
1445 998 -1597 0
1445 998 -1224 0
1445 998 1392 -946 0
1445 998 -1392 946 0
1445 998 573 -1224 0
1445 998 -573 1224 0
1445 998 1604 -526 0
1445 998 -1604 526 0
1445 998 3074 -1597 0
1445 998 -3074 1597 0
1445 2504 0
1445 1497 -1392 0
1445 -1497 1392 0
1445 3127 -573 0
1445 -3127 573 0
1445 429 -1604 0
1445 -429 1604 0
1445 1665 -3074 0
1445 -1665 3074 0
-2013 -2738 -2124 0
-2013 -2738 -2089 0
-2013 -2738 -3114 0
-2013 -2738 -2598 0
-2013 -2738 2572 -2089 0
-2013 -2738 -2572 2089 0
-2013 -2738 1538 -2598 0
-2013 -2738 -1538 2598 0
-2013 -2738 784 -2124 0
-2013 -2738 -784 2124 0
-2013 -2738 1362 -3114 0
-2013 -2738 -1362 3114 0
-2013 2738 422 0
-2013 2738 1100 0
-2013 2738 3098 0
-2013 2738 2660 0
-2013 2738 2572 -1100 0
-2013 2738 -2572 1100 0
-2013 2738 1538 -2660 0
-2013 2738 -1538 2660 0
-2013 2738 784 -422 0
-2013 2738 -784 422 0
-2013 2738 1362 -3098 0
-2013 2738 -1362 3098 0
-2013 228 0
-2013 484 -2572 0
-2013 -484 2572 0
-2013 99 -1538 0
-2013 -99 1538 0
-2013 1497 -784 0
-2013 -1497 784 0
-2013 1508 -1362 0
-2013 -1508 1362 0
2013 -1603 -2023 0
2013 -1603 -1071 0
2013 -1603 2634 0
2013 -1603 2623 0
2013 -1603 210 -1071 0
2013 -1603 -210 1071 0
2013 -1603 759 -2623 0
2013 -1603 -759 2623 0
2013 -1603 346 -2023 0
2013 -1603 -346 2023 0
2013 -1603 886 -2634 0
2013 -1603 -886 2634 0
2013 1603 1517 0
2013 1603 2544 0
2013 1603 -2037 0
2013 1603 -2041 0
2013 1603 210 -2544 0
2013 1603 -210 2544 0
2013 1603 759 -2041 0
2013 1603 -759 2041 0
2013 1603 346 -1517 0
2013 1603 -346 1517 0
2013 1603 886 -2037 0
2013 1603 -886 2037 0
2013 2670 0
2013 484 -210 0
2013 -484 210 0
2013 99 -759 0
2013 -99 759 0
2013 1497 -346 0
2013 -1497 346 0
2013 1508 -886 0
2013 -1508 886 0
-2006 -2940 -191 0
-2006 -2940 -1726 0
-2006 -2940 -1353 0
-2006 -2940 -1477 0
-2006 -2940 1169 -1726 0
-2006 -2940 -1169 1726 0
-2006 -2940 2106 -1477 0
-2006 -2940 -2106 1477 0
-2006 -2940 674 -191 0
-2006 -2940 -674 191 0
-2006 -2940 766 -1353 0
-2006 -2940 -766 1353 0
-2006 2940 2822 0
-2006 2940 1119 0
-2006 2940 2319 0
-2006 2940 1997 0
-2006 2940 1169 -1119 0
-2006 2940 -1169 1119 0
-2006 2940 2106 -1997 0
-2006 2940 -2106 1997 0
-2006 2940 674 -2822 0
-2006 2940 -674 2822 0
-2006 2940 766 -2319 0
-2006 2940 -766 2319 0
-2006 231 0
-2006 16 -1169 0
-2006 -16 1169 0
-2006 380 -2106 0
-2006 -380 2106 0
-2006 1302 -674 0
-2006 -1302 674 0
-2006 2112 -766 0
-2006 -2112 766 0
2006 -2483 -416 0
2006 -2483 -1865 0
2006 -2483 2457 0
2006 -2483 1274 0
2006 -2483 2014 -1865 0
2006 -2483 -2014 1865 0
2006 -2483 968 -1274 0
2006 -2483 -968 1274 0
2006 -2483 1653 -416 0
2006 -2483 -1653 416 0
2006 -2483 871 -2457 0
2006 -2483 -871 2457 0
2006 2483 1112 0
2006 2483 883 0
2006 2483 -756 0
2006 2483 -39 0
2006 2483 2014 -883 0
2006 2483 -2014 883 0
2006 2483 968 -39 0
2006 2483 -968 39 0
2006 2483 1653 -1112 0
2006 2483 -1653 1112 0
2006 2483 871 -756 0
2006 2483 -871 756 0
2006 370 0
2006 16 -2014 0
2006 -16 2014 0
2006 380 -968 0
2006 -380 968 0
2006 1302 -1653 0
2006 -1302 1653 0
2006 2112 -871 0
2006 -2112 871 0
-1823 -1221 -378 0
-1823 -1221 -3049 0
-1823 -1221 -2026 0
-1823 -1221 -2514 0
-1823 -1221 2476 -3049 0
-1823 -1221 -2476 3049 0
-1823 -1221 400 -2514 0
-1823 -1221 -400 2514 0
-1823 -1221 751 -378 0
-1823 -1221 -751 378 0
-1823 -1221 2339 -2026 0
-1823 -1221 -2339 2026 0
-1823 1221 2140 0
-1823 1221 2147 0
-1823 1221 54 0
-1823 1221 1076 0
-1823 1221 2476 -2147 0
-1823 1221 -2476 2147 0
-1823 1221 400 -1076 0
-1823 1221 -400 1076 0
-1823 1221 751 -2140 0
-1823 1221 -751 2140 0
-1823 1221 2339 -54 0
-1823 1221 -2339 54 0
-1823 2782 0
-1823 988 -2476 0
-1823 -988 2476 0
-1823 1744 -400 0
-1823 -1744 400 0
-1823 16 -751 0
-1823 -16 751 0
-1823 2871 -2339 0
-1823 -2871 2339 0
1823 -2202 -1586 0
1823 -2202 -100 0
1823 -2202 1965 0
1823 -2202 2529 0
1823 -2202 3150 -100 0
1823 -2202 -3150 100 0
1823 -2202 2857 -2529 0
1823 -2202 -2857 2529 0
1823 -2202 124 -1586 0
1823 -2202 -124 1586 0
1823 -2202 1163 -1965 0
1823 -2202 -1163 1965 0
1823 2202 952 0
1823 2202 1860 0
1823 2202 -3091 0
1823 2202 -1972 0
1823 2202 3150 -1860 0
1823 2202 -3150 1860 0
1823 2202 2857 -1972 0
1823 2202 -2857 1972 0
1823 2202 124 -952 0
1823 2202 -124 952 0
1823 2202 1163 -3091 0
1823 2202 -1163 3091 0
1823 1320 0
1823 988 -3150 0
1823 -988 3150 0
1823 1744 -2857 0
1823 -1744 2857 0
1823 16 -124 0
1823 -16 124 0
1823 2871 -1163 0
1823 -2871 1163 0
-1091 -1621 -835 0
-1091 -1621 -408 0
-1091 -1621 -2490 0
-1091 -1621 -2250 0
-1091 -1621 2137 -408 0
-1091 -1621 -2137 408 0
-1091 -1621 2406 -2250 0
-1091 -1621 -2406 2250 0
-1091 -1621 2574 -835 0
-1091 -1621 -2574 835 0
-1091 -1621 1146 -2490 0
-1091 -1621 -1146 2490 0
-1091 1621 2335 0
-1091 1621 994 0
-1091 1621 2580 0
-1091 1621 2496 0
-1091 1621 2137 -994 0
-1091 1621 -2137 994 0
-1091 1621 2406 -2496 0
-1091 1621 -2406 2496 0
-1091 1621 2574 -2335 0
-1091 1621 -2574 2335 0
-1091 1621 1146 -2580 0
-1091 1621 -1146 2580 0
-1091 1448 0
-1091 3118 -2137 0
-1091 -3118 2137 0
-1091 2935 -2406 0
-1091 -2935 2406 0
-1091 704 -2574 0
-1091 -704 2574 0
-1091 2338 -1146 0
-1091 -2338 1146 0
1091 -2527 -1696 0
1091 -2527 -1745 0
1091 -2527 1061 0
1091 -2527 2154 0
1091 -2527 2064 -1745 0
1091 -2527 -2064 1745 0
1091 -2527 1703 -2154 0
1091 -2527 -1703 2154 0
1091 -2527 2625 -1696 0
1091 -2527 -2625 1696 0
1091 -2527 2299 -1061 0
1091 -2527 -2299 1061 0
1091 2527 14 0
1091 2527 556 0
1091 2527 -616 0
1091 2527 -1924 0
1091 2527 2064 -556 0
1091 2527 -2064 556 0
1091 2527 1703 -1924 0
1091 2527 -1703 1924 0
1091 2527 2625 -14 0
1091 2527 -2625 14 0
1091 2527 2299 -616 0
1091 2527 -2299 616 0
1091 2428 0
1091 3118 -2064 0
1091 -3118 2064 0
1091 2935 -1703 0
1091 -2935 1703 0
1091 704 -2625 0
1091 -704 2625 0
1091 2338 -2299 0
1091 -2338 2299 0
-2581 -568 -2820 0
-2581 -568 -3153 0
-2581 -568 -10 0
-2581 -568 -1640 0
-2581 -568 1546 -3153 0
-2581 -568 -1546 3153 0
-2581 -568 1092 -1640 0
-2581 -568 -1092 1640 0
-2581 -568 1976 -2820 0
-2581 -568 -1976 2820 0
-2581 -568 2621 -10 0
-2581 -568 -2621 10 0
-2581 568 2287 0
-2581 568 2282 0
-2581 568 629 0
-2581 568 2879 0
-2581 568 1546 -2282 0
-2581 568 -1546 2282 0
-2581 568 1092 -2879 0
-2581 568 -1092 2879 0
-2581 568 1976 -2287 0
-2581 568 -1976 2287 0
-2581 568 2621 -629 0
-2581 568 -2621 629 0
-2581 38 0
-2581 1528 -1546 0
-2581 -1528 1546 0
-2581 760 -1092 0
-2581 -760 1092 0
-2581 250 -1976 0
-2581 -250 1976 0
-2581 680 -2621 0
-2581 -680 2621 0
2581 -1097 -2217 0
2581 -1097 -2746 0
2581 -1097 2751 0
2581 -1097 2876 0
2581 -1097 917 -2746 0
2581 -1097 -917 2746 0
2581 -1097 2441 -2876 0
2581 -1097 -2441 2876 0
2581 -1097 746 -2217 0
2581 -1097 -746 2217 0
2581 -1097 1599 -2751 0
2581 -1097 -1599 2751 0
2581 1097 916 0
2581 1097 1515 0
2581 1097 -1667 0
2581 1097 -1909 0
2581 1097 917 -1515 0
2581 1097 -917 1515 0
2581 1097 2441 -1909 0
2581 1097 -2441 1909 0
2581 1097 746 -916 0
2581 1097 -746 916 0
2581 1097 1599 -1667 0
2581 1097 -1599 1667 0
2581 2207 0
2581 1528 -917 0
2581 -1528 917 0
2581 760 -2441 0
2581 -760 2441 0
2581 250 -746 0
2581 -250 746 0
2581 680 -1599 0
2581 -680 1599 0
-456 -584 -1324 0
-456 -584 -1099 0
-456 -584 -945 0
-456 -584 -3011 0
-456 -584 648 -1099 0
-456 -584 -648 1099 0
-456 -584 1190 -3011 0
-456 -584 -1190 3011 0
-456 -584 2963 -1324 0
-456 -584 -2963 1324 0
-456 -584 454 -945 0
-456 -584 -454 945 0
-456 584 1252 0
-456 584 2933 0
-456 584 2961 0
-456 584 904 0
-456 584 648 -2933 0
-456 584 -648 2933 0
-456 584 1190 -904 0
-456 584 -1190 904 0
-456 584 2963 -1252 0
-456 584 -2963 1252 0
-456 584 454 -2961 0
-456 584 -454 2961 0
-456 3053 0
-456 761 -648 0
-456 -761 648 0
-456 2198 -1190 0
-456 -2198 1190 0
-456 1528 -2963 0
-456 -1528 2963 0
-456 1260 -454 0
-456 -1260 454 0
456 -165 -1147 0
456 -165 -1702 0
456 -165 1305 0
456 -165 515 0
456 -165 799 -1702 0
456 -165 -799 1702 0
456 -165 1033 -515 0
456 -165 -1033 515 0
456 -165 1559 -1147 0
456 -165 -1559 1147 0
456 -165 114 -1305 0
456 -165 -114 1305 0
456 165 2681 0
456 165 419 0
456 165 -444 0
456 165 -1074 0
456 165 799 -419 0
456 165 -799 419 0
456 165 1033 -1074 0
456 165 -1033 1074 0
456 165 1559 -2681 0
456 165 -1559 2681 0
456 165 114 -444 0
456 165 -114 444 0
456 1705 0
456 761 -799 0
456 -761 799 0
456 2198 -1033 0
456 -2198 1033 0
456 1528 -1559 0
456 -1528 1559 0
456 1260 -114 0
456 -1260 114 0
-1313 -1614 -1805 0
-1313 -1614 -151 0
-1313 -1614 -164 0
-1313 -1614 -324 0
-1313 -1614 373 -151 0
-1313 -1614 -373 151 0
-1313 -1614 2543 -324 0
-1313 -1614 -2543 324 0
-1313 -1614 1728 -1805 0
-1313 -1614 -1728 1805 0
-1313 -1614 1204 -164 0
-1313 -1614 -1204 164 0
-1313 1614 1628 0
-1313 1614 167 0
-1313 1614 976 0
-1313 1614 2226 0
-1313 1614 373 -167 0
-1313 1614 -373 167 0
-1313 1614 2543 -2226 0
-1313 1614 -2543 2226 0
-1313 1614 1728 -1628 0
-1313 1614 -1728 1628 0
-1313 1614 1204 -976 0
-1313 1614 -1204 976 0
-1313 1642 0
-1313 442 -373 0
-1313 -442 373 0
-1313 1871 -2543 0
-1313 -1871 2543 0
-1313 761 -1728 0
-1313 -761 1728 0
-1313 1723 -1204 0
-1313 -1723 1204 0
1313 -303 -1293 0
1313 -303 -1213 0
1313 -303 1222 0
1313 -303 2515 0
1313 -303 2922 -1213 0
1313 -303 -2922 1213 0
1313 -303 3069 -2515 0
1313 -303 -3069 2515 0
1313 -303 1717 -1293 0
1313 -303 -1717 1293 0
1313 -303 1706 -1222 0
1313 -303 -1706 1222 0
1313 303 410 0
1313 303 2588 0
1313 303 -1255 0
1313 303 -1499 0
1313 303 2922 -2588 0
1313 303 -2922 2588 0
1313 303 3069 -1499 0
1313 303 -3069 1499 0
1313 303 1717 -410 0
1313 303 -1717 410 0
1313 303 1706 -1255 0
1313 303 -1706 1255 0
1313 137 0
1313 442 -2922 0
1313 -442 2922 0
1313 1871 -3069 0
1313 -1871 3069 0
1313 761 -1717 0
1313 -761 1717 0
1313 1723 -1706 0
1313 -1723 1706 0
-169 -2024 -1752 0
-169 -2024 -888 0
-169 -2024 -199 0
-169 -2024 -340 0
-169 -2024 739 -888 0
-169 -2024 -739 888 0
-169 -2024 1023 -340 0
-169 -2024 -1023 340 0
-169 -2024 789 -1752 0
-169 -2024 -789 1752 0
-169 -2024 1818 -199 0
-169 -2024 -1818 199 0
-169 2024 1947 0
-169 2024 160 0
-169 2024 2374 0
-169 2024 1028 0
-169 2024 739 -160 0
-169 2024 -739 160 0
-169 2024 1023 -1028 0
-169 2024 -1023 1028 0
-169 2024 789 -1947 0
-169 2024 -789 1947 0
-169 2024 1818 -2374 0
-169 2024 -1818 2374 0
-169 3110 0
-169 3126 -739 0
-169 -3126 739 0
-169 47 -1023 0
-169 -47 1023 0
-169 442 -789 0
-169 -442 789 0
-169 1744 -1818 0
-169 -1744 1818 0
169 -1115 -582 0
169 -1115 -3131 0
169 -1115 2344 0
169 -1115 2008 0
169 -1115 2499 -3131 0
169 -1115 -2499 3131 0
169 -1115 1879 -2008 0
169 -1115 -1879 2008 0
169 -1115 1104 -582 0
169 -1115 -1104 582 0
169 -1115 831 -2344 0
169 -1115 -831 2344 0
169 1115 686 0
169 1115 2680 0
169 1115 -2799 0
169 1115 -3023 0
169 1115 2499 -2680 0
169 1115 -2499 2680 0
169 1115 1879 -3023 0
169 1115 -1879 3023 0
169 1115 1104 -686 0
169 1115 -1104 686 0
169 1115 831 -2799 0
169 1115 -831 2799 0
169 1644 0
169 3126 -2499 0
169 -3126 2499 0
169 47 -1879 0
169 -47 1879 0
169 442 -1104 0
169 -442 1104 0
169 1744 -831 0
169 -1744 831 0
-1193 -1456 -1017 0
-1193 -1456 -1582 0
-1193 -1456 -1689 0
-1193 -1456 -1731 0
-1193 -1456 2756 -1582 0
-1193 -1456 -2756 1582 0
-1193 -1456 2807 -1731 0
-1193 -1456 -2807 1731 0
-1193 -1456 359 -1017 0
-1193 -1456 -359 1017 0
-1193 -1456 1813 -1689 0
-1193 -1456 -1813 1689 0
-1193 1456 2993 0
-1193 1456 673 0
-1193 1456 1116 0
-1193 1456 307 0
-1193 1456 2756 -673 0
-1193 1456 -2756 673 0
-1193 1456 2807 -307 0
-1193 1456 -2807 307 0
-1193 1456 359 -2993 0
-1193 1456 -359 2993 0
-1193 1456 1813 -1116 0
-1193 1456 -1813 1116 0
-1193 2735 0
-1193 2534 -2756 0
-1193 -2534 2756 0
-1193 2833 -2807 0
-1193 -2833 2807 0
-1193 3127 -359 0
-1193 -3127 359 0
-1193 1060 -1813 0
-1193 -1060 1813 0
1193 -1524 -2956 0
1193 -1524 -1588 0
1193 -1524 1661 0
1193 -1524 2408 0
1193 -1524 1651 -1588 0
1193 -1524 -1651 1588 0
1193 -1524 34 -2408 0
1193 -1524 -34 2408 0
1193 -1524 1427 -2956 0
1193 -1524 -1427 2956 0
1193 -1524 3037 -1661 0
1193 -1524 -3037 1661 0
1193 1524 344 0
1193 1524 246 0
1193 1524 -2447 0
1193 1524 -1168 0
1193 1524 1651 -246 0
1193 1524 -1651 246 0
1193 1524 34 -1168 0
1193 1524 -34 1168 0
1193 1524 1427 -344 0
1193 1524 -1427 344 0
1193 1524 3037 -2447 0
1193 1524 -3037 2447 0
1193 1225 0
1193 2534 -1651 0
1193 -2534 1651 0
1193 2833 -34 0
1193 -2833 34 0
1193 3127 -1427 0
1193 -3127 1427 0
1193 1060 -3037 0
1193 -1060 3037 0
-1956 -2372 -1535 0
-1956 -2372 -596 0
-1956 -2372 -2676 0
-1956 -2372 -1979 0
-1956 -2372 949 -596 0
-1956 -2372 -949 596 0
-1956 -2372 1941 -1979 0
-1956 -2372 -1941 1979 0
-1956 -2372 1167 -1535 0
-1956 -2372 -1167 1535 0
-1956 -2372 2697 -2676 0
-1956 -2372 -2697 2676 0
-1956 2372 388 0
-1956 2372 3032 0
-1956 2372 1109 0
-1956 2372 1565 0
-1956 2372 949 -3032 0
-1956 2372 -949 3032 0
-1956 2372 1941 -1565 0
-1956 2372 -1941 1565 0
-1956 2372 1167 -388 0
-1956 2372 -1167 388 0
-1956 2372 2697 -1109 0
-1956 2372 -2697 1109 0
-1956 112 0
-1956 411 -949 0
-1956 -411 949 0
-1956 1412 -1941 0
-1956 -1412 1941 0
-1956 2534 -1167 0
-1956 -2534 1167 0
-1956 1506 -2697 0
-1956 -1506 2697 0
1956 -769 -1290 0
1956 -769 -842 0
1956 -769 1864 0
1956 -769 2768 0
1956 -769 540 -842 0
1956 -769 -540 842 0
1956 -769 2443 -2768 0
1956 -769 -2443 2768 0
1956 -769 2764 -1290 0
1956 -769 -2764 1290 0
1956 -769 1357 -1864 0
1956 -769 -1357 1864 0
1956 769 1030 0
1956 769 1251 0
1956 769 -2219 0
1956 769 -76 0
1956 769 540 -1251 0
1956 769 -540 1251 0
1956 769 2443 -76 0
1956 769 -2443 76 0
1956 769 2764 -1030 0
1956 769 -2764 1030 0
1956 769 1357 -2219 0
1956 769 -1357 2219 0
1956 458 0
1956 411 -540 0
1956 -411 540 0
1956 1412 -2443 0
1956 -1412 2443 0
1956 2534 -2764 0
1956 -2534 2764 0
1956 1506 -1357 0
1956 -1506 1357 0
-2749 -1772 -2115 0
-2749 -1772 -2914 0
-2749 -1772 -2521 0
-2749 -1772 -363 0
-2749 -1772 995 -2914 0
-2749 -1772 -995 2914 0
-2749 -1772 2619 -363 0
-2749 -1772 -2619 363 0
-2749 -1772 281 -2115 0
-2749 -1772 -281 2115 0
-2749 -1772 1370 -2521 0
-2749 -1772 -1370 2521 0
-2749 1772 1363 0
-2749 1772 2972 0
-2749 1772 1794 0
-2749 1772 1750 0
-2749 1772 995 -2972 0
-2749 1772 -995 2972 0
-2749 1772 2619 -1750 0
-2749 1772 -2619 1750 0
-2749 1772 281 -1363 0
-2749 1772 -281 1363 0
-2749 1772 1370 -1794 0
-2749 1772 -1370 1794 0
-2749 2165 0
-2749 928 -995 0
-2749 -928 995 0
-2749 2803 -2619 0
-2749 -2803 2619 0
-2749 411 -281 0
-2749 -411 281 0
-2749 1413 -1370 0
-2749 -1413 1370 0
2749 -88 -2416 0
2749 -88 -881 0
2749 -88 931 0
2749 -88 2178 0
2749 -88 2519 -881 0
2749 -88 -2519 881 0
2749 -88 3142 -2178 0
2749 -88 -3142 2178 0
2749 -88 2401 -2416 0
2749 -88 -2401 2416 0
2749 -88 2550 -931 0
2749 -88 -2550 931 0
2749 88 263 0
2749 88 860 0
2749 88 -2102 0
2749 88 -642 0
2749 88 2519 -860 0
2749 88 -2519 860 0
2749 88 3142 -642 0
2749 88 -3142 642 0
2749 88 2401 -263 0
2749 88 -2401 263 0
2749 88 2550 -2102 0
2749 88 -2550 2102 0
2749 2512 0
2749 928 -2519 0
2749 -928 2519 0
2749 2803 -3142 0
2749 -2803 3142 0
2749 411 -2401 0
2749 -411 2401 0
2749 1413 -2550 0
2749 -1413 2550 0
-2655 -394 -1141 0
-2655 -394 -194 0
-2655 -394 -350 0
-2655 -394 -3064 0
-2655 -394 658 -194 0
-2655 -394 -658 194 0
-2655 -394 507 -3064 0
-2655 -394 -507 3064 0
-2655 -394 908 -1141 0
-2655 -394 -908 1141 0
-2655 -394 1995 -350 0
-2655 -394 -1995 350 0
-2655 394 1835 0
-2655 394 2277 0
-2655 394 2981 0
-2655 394 1234 0
-2655 394 658 -2277 0
-2655 394 -658 2277 0
-2655 394 507 -1234 0
-2655 394 -507 1234 0
-2655 394 908 -1835 0
-2655 394 -908 1835 0
-2655 394 1995 -2981 0
-2655 394 -1995 2981 0
-2655 294 0
-2655 865 -658 0
-2655 -865 658 0
-2655 1529 -507 0
-2655 -1529 507 0
-2655 928 -908 0
-2655 -928 908 0
-2655 47 -1995 0
-2655 -47 1995 0
2655 -527 -4 0
2655 -527 -1424 0
2655 -527 3065 0
2655 -527 937 0
2655 -527 13 -1424 0
2655 -527 -13 1424 0
2655 -527 3147 -937 0
2655 -527 -3147 937 0
2655 -527 2426 -4 0
2655 -527 -2426 4 0
2655 -527 1560 -3065 0
2655 -527 -1560 3065 0
2655 527 757 0
2655 527 1926 0
2655 527 -2236 0
2655 527 -2342 0
2655 527 13 -1926 0
2655 527 -13 1926 0
2655 527 3147 -2342 0
2655 527 -3147 2342 0
2655 527 2426 -757 0
2655 527 -2426 757 0
2655 527 1560 -2236 0
2655 527 -1560 2236 0
2655 1059 0
2655 865 -13 0
2655 -865 13 0
2655 1529 -3147 0
2655 -1529 3147 0
2655 928 -2426 0
2655 -928 2426 0
2655 47 -1560 0
2655 -47 1560 0
-3158 -2395 -2793 0
-3158 -2395 -646 0
-3158 -2395 -453 0
-3158 -2395 -2438 0
-3158 -2395 2810 -646 0
-3158 -2395 -2810 646 0
-3158 -2395 212 -2438 0
-3158 -2395 -212 2438 0
-3158 -2395 1550 -2793 0
-3158 -2395 -1550 2793 0
-3158 -2395 1646 -453 0
-3158 -2395 -1646 453 0
-3158 2395 2004 0
-3158 2395 676 0
-3158 2395 730 0
-3158 2395 2926 0
-3158 2395 2810 -676 0
-3158 2395 -2810 676 0
-3158 2395 212 -2926 0
-3158 2395 -212 2926 0
-3158 2395 1550 -2004 0
-3158 2395 -1550 2004 0
-3158 2395 1646 -730 0
-3158 2395 -1646 730 0
-3158 1326 0
-3158 2721 -2810 0
-3158 -2721 2810 0
-3158 1086 -212 0
-3158 -1086 212 0
-3158 2960 -1550 0
-3158 -2960 1550 0
-3158 724 -1646 0
-3158 -724 1646 0
3158 -2295 -465 0
3158 -2295 -2240 0
3158 -2295 2752 0
3158 -2295 2987 0
3158 -2295 2311 -2240 0
3158 -2295 -2311 2240 0
3158 -2295 2309 -2987 0
3158 -2295 -2309 2987 0
3158 -2295 2433 -465 0
3158 -2295 -2433 465 0
3158 -2295 101 -2752 0
3158 -2295 -101 2752 0
3158 2295 2016 0
3158 2295 2854 0
3158 2295 -2009 0
3158 2295 -1461 0
3158 2295 2311 -2854 0
3158 2295 -2311 2854 0
3158 2295 2309 -1461 0
3158 2295 -2309 1461 0
3158 2295 2433 -2016 0
3158 2295 -2433 2016 0
3158 2295 101 -2009 0
3158 2295 -101 2009 0
3158 3121 0
3158 2721 -2311 0
3158 -2721 2311 0
3158 1086 -2309 0
3158 -1086 2309 0
3158 2960 -2433 0
3158 -2960 2433 0
3158 724 -101 0
3158 -724 101 0
-2214 -2936 -1377 0
-2214 -2936 -3111 0
-2214 -2936 -368 0
-2214 -2936 -1888 0
-2214 -2936 1591 -3111 0
-2214 -2936 -1591 3111 0
-2214 -2936 2584 -1888 0
-2214 -2936 -2584 1888 0
-2214 -2936 2256 -1377 0
-2214 -2936 -2256 1377 0
-2214 -2936 1674 -368 0
-2214 -2936 -1674 368 0
-2214 2936 1361 0
-2214 2936 1638 0
-2214 2936 2510 0
-2214 2936 1498 0
-2214 2936 1591 -1638 0
-2214 2936 -1591 1638 0
-2214 2936 2584 -1498 0
-2214 2936 -2584 1498 0
-2214 2936 2256 -1361 0
-2214 2936 -2256 1361 0
-2214 2936 1674 -2510 0
-2214 2936 -1674 2510 0
-2214 1482 0
-2214 2626 -1591 0
-2214 -2626 1591 0
-2214 57 -2584 0
-2214 -57 2584 0
-2214 2721 -2256 0
-2214 -2721 2256 0
-2214 267 -1674 0
-2214 -267 1674 0
2214 -2925 -120 0
2214 -2925 -1968 0
2214 -2925 586 0
2214 -2925 486 0
2214 -2925 2268 -1968 0
2214 -2925 -2268 1968 0
2214 -2925 631 -486 0
2214 -2925 -631 486 0
2214 -2925 317 -120 0
2214 -2925 -317 120 0
2214 -2925 2679 -586 0
2214 -2925 -2679 586 0
2214 2925 669 0
2214 2925 2150 0
2214 2925 -1340 0
2214 2925 -802 0
2214 2925 2268 -2150 0
2214 2925 -2268 2150 0
2214 2925 631 -802 0
2214 2925 -631 802 0
2214 2925 317 -669 0
2214 2925 -317 669 0
2214 2925 2679 -1340 0
2214 2925 -2679 1340 0
2214 488 0
2214 2626 -2268 0
2214 -2626 2268 0
2214 57 -631 0
2214 -57 631 0
2214 2721 -317 0
2214 -2721 317 0
2214 267 -2679 0
2214 -267 2679 0
-2213 -2340 -434 0
-2213 -2340 -781 0
-2213 -2340 -1078 0
-2213 -2340 -3054 0
-2213 -2340 343 -781 0
-2213 -2340 -343 781 0
-2213 -2340 705 -3054 0
-2213 -2340 -705 3054 0
-2213 -2340 1930 -434 0
-2213 -2340 -1930 434 0
-2213 -2340 627 -1078 0
-2213 -2340 -627 1078 0
-2213 2340 2469 0
-2213 2340 2728 0
-2213 2340 2611 0
-2213 2340 467 0
-2213 2340 343 -2728 0
-2213 2340 -343 2728 0
-2213 2340 705 -467 0
-2213 2340 -705 467 0
-2213 2340 1930 -2469 0
-2213 2340 -1930 2469 0
-2213 2340 627 -2611 0
-2213 2340 -627 2611 0
-2213 1788 0
-2213 963 -343 0
-2213 -963 343 0
-2213 913 -705 0
-2213 -913 705 0
-2213 2626 -1930 0
-2213 -2626 1930 0
-2213 1799 -627 0
-2213 -1799 627 0
2213 -863 -925 0
2213 -863 -2431 0
2213 -863 891 0
2213 -863 2654 0
2213 -863 2874 -2431 0
2213 -863 -2874 2431 0
2213 -863 1763 -2654 0
2213 -863 -1763 2654 0
2213 -863 801 -925 0
2213 -863 -801 925 0
2213 -863 490 -891 0
2213 -863 -490 891 0
2213 863 3185 0
2213 863 1139 0
2213 863 -355 0
2213 863 -1024 0
2213 863 2874 -1139 0
2213 863 -2874 1139 0
2213 863 1763 -1024 0
2213 863 -1763 1024 0
2213 863 801 -3185 0
2213 863 -801 3185 0
2213 863 490 -355 0
2213 863 -490 355 0
2213 2196 0
2213 963 -2874 0
2213 -963 2874 0
2213 913 -1763 0
2213 -913 1763 0
2213 2626 -801 0
2213 -2626 801 0
2213 1799 -490 0
2213 -1799 490 0
-2953 -1286 -1012 0
-2953 -1286 -3031 0
-2953 -1286 -2859 0
-2953 -1286 -938 0
-2953 -1286 3034 -3031 0
-2953 -1286 -3034 3031 0
-2953 -1286 1272 -938 0
-2953 -1286 -1272 938 0
-2953 -1286 2316 -1012 0
-2953 -1286 -2316 1012 0
-2953 -1286 1840 -2859 0
-2953 -1286 -1840 2859 0
-2953 1286 2906 0
-2953 1286 245 0
-2953 1286 18 0
-2953 1286 958 0
-2953 1286 3034 -245 0
-2953 1286 -3034 245 0
-2953 1286 1272 -958 0
-2953 1286 -1272 958 0
-2953 1286 2316 -2906 0
-2953 1286 -2316 2906 0
-2953 1286 1840 -18 0
-2953 1286 -1840 18 0
-2953 814 0
-2953 783 -3034 0
-2953 -783 3034 0
-2953 2526 -1272 0
-2953 -2526 1272 0
-2953 2241 -2316 0
-2953 -2241 2316 0
-2953 1554 -1840 0
-2953 -1554 1840 0
2953 -779 -1294 0
2953 -779 -497 0
2953 -779 2701 0
2953 -779 577 0
2953 -779 3025 -497 0
2953 -779 -3025 497 0
2953 -779 1736 -577 0
2953 -779 -1736 577 0
2953 -779 985 -1294 0
2953 -779 -985 1294 0
2953 -779 936 -2701 0
2953 -779 -936 2701 0
2953 779 430 0
2953 779 3122 0
2953 779 -1769 0
2953 779 -1214 0
2953 779 3025 -3122 0
2953 779 -3025 3122 0
2953 779 1736 -1214 0
2953 779 -1736 1214 0
2953 779 985 -430 0
2953 779 -985 430 0
2953 779 936 -1769 0
2953 779 -936 1769 0
2953 2520 0
2953 783 -3025 0
2953 -783 3025 0
2953 2526 -1736 0
2953 -2526 1736 0
2953 2241 -985 0
2953 -2241 985 0
2953 1554 -936 0
2953 -1554 936 0
-2239 -2128 -1602 0
-2239 -2128 -2507 0
-2239 -2128 -1254 0
-2239 -2128 -485 0
-2239 -2128 1396 -2507 0
-2239 -2128 -1396 2507 0
-2239 -2128 82 -485 0
-2239 -2128 -82 485 0
-2239 -2128 2988 -1602 0
-2239 -2128 -2988 1602 0
-2239 -2128 1584 -1254 0
-2239 -2128 -1584 1254 0
-2239 2128 1495 0
-2239 2128 1945 0
-2239 2128 2109 0
-2239 2128 338 0
-2239 2128 1396 -1945 0
-2239 2128 -1396 1945 0
-2239 2128 82 -338 0
-2239 2128 -82 338 0
-2239 2128 2988 -1495 0
-2239 2128 -2988 1495 0
-2239 2128 1584 -2109 0
-2239 2128 -1584 2109 0
-2239 2643 0
-2239 1874 -1396 0
-2239 -1874 1396 0
-2239 1390 -82 0
-2239 -1390 82 0
-2239 783 -2988 0
-2239 -783 2988 0
-2239 1323 -1584 0
-2239 -1323 1584 0
2239 -1041 -441 0
2239 -1041 -1986 0
2239 -1041 934 0
2239 -1041 1907 0
2239 -1041 449 -1986 0
2239 -1041 -449 1986 0
2239 -1041 1631 -1907 0
2239 -1041 -1631 1907 0
2239 -1041 2288 -441 0
2239 -1041 -2288 441 0
2239 -1041 742 -934 0
2239 -1041 -742 934 0
2239 1041 1720 0
2239 1041 1475 0
2239 1041 -73 0
2239 1041 -2485 0
2239 1041 449 -1475 0
2239 1041 -449 1475 0
2239 1041 1631 -2485 0
2239 1041 -1631 2485 0
2239 1041 2288 -1720 0
2239 1041 -2288 1720 0
2239 1041 742 -73 0
2239 1041 -742 73 0
2239 2571 0
2239 1874 -449 0
2239 -1874 449 0
2239 1390 -1631 0
2239 -1390 1631 0
2239 783 -2288 0
2239 -783 2288 0
2239 1323 -742 0
2239 -1323 742 0
-1843 -1960 -2331 0
-1843 -1960 -318 0
-1843 -1960 -1851 0
-1843 -1960 -1927 0
-1843 -1960 2792 -318 0
-1843 -1960 -2792 318 0
-1843 -1960 95 -1927 0
-1843 -1960 -95 1927 0
-1843 -1960 868 -2331 0
-1843 -1960 -868 2331 0
-1843 -1960 788 -1851 0
-1843 -1960 -788 1851 0
-1843 1960 2144 0
-1843 1960 440 0
-1843 1960 2547 0
-1843 1960 2944 0
-1843 1960 2792 -440 0
-1843 1960 -2792 440 0
-1843 1960 95 -2944 0
-1843 1960 -95 2944 0
-1843 1960 868 -2144 0
-1843 1960 -868 2144 0
-1843 1960 788 -2547 0
-1843 1960 -788 2547 0
-1843 1047 0
-1843 392 -2792 0
-1843 -392 2792 0
-1843 2501 -95 0
-1843 -2501 95 0
-1843 1874 -868 0
-1843 -1874 868 0
-1843 3014 -788 0
-1843 -3014 788 0
1843 -2984 -2444 0
1843 -2984 -1810 0
1843 -2984 989 0
1843 -2984 1122 0
1843 -2984 615 -1810 0
1843 -2984 -615 1810 0
1843 -2984 1645 -1122 0
1843 -2984 -1645 1122 0
1843 -2984 2715 -2444 0
1843 -2984 -2715 2444 0
1843 -2984 1490 -989 0
1843 -2984 -1490 989 0
1843 2984 2869 0
1843 2984 1270 0
1843 2984 -2785 0
1843 2984 -2908 0
1843 2984 615 -1270 0
1843 2984 -615 1270 0
1843 2984 1645 -2908 0
1843 2984 -1645 2908 0
1843 2984 2715 -2869 0
1843 2984 -2715 2869 0
1843 2984 1490 -2785 0
1843 2984 -1490 2785 0
1843 64 0
1843 392 -615 0
1843 -392 615 0
1843 2501 -1645 0
1843 -2501 1645 0
1843 1874 -2715 0
1843 -1874 2715 0
1843 3014 -1490 0
1843 -3014 1490 0
-3146 -50 -1537 0
-3146 -50 -1876 0
-3146 -50 -807 0
-3146 -50 -2949 0
-3146 -50 856 -1876 0
-3146 -50 -856 1876 0
-3146 -50 2121 -2949 0
-3146 -50 -2121 2949 0
-3146 -50 2451 -1537 0
-3146 -50 -2451 1537 0
-3146 -50 2209 -807 0
-3146 -50 -2209 807 0
-3146 50 1568 0
-3146 50 2700 0
-3146 50 2957 0
-3146 50 2326 0
-3146 50 856 -2700 0
-3146 50 -856 2700 0
-3146 50 2121 -2326 0
-3146 50 -2121 2326 0
-3146 50 2451 -1568 0
-3146 50 -2451 1568 0
-3146 50 2209 -2957 0
-3146 50 -2209 2957 0
-3146 2181 0
-3146 2488 -856 0
-3146 -2488 856 0
-3146 256 -2121 0
-3146 -256 2121 0
-3146 392 -2451 0
-3146 -392 2451 0
-3146 913 -2209 0
-3146 -913 2209 0
3146 -3172 -1398 0
3146 -3172 -2712 0
3146 -3172 452 0
3146 -3172 841 0
3146 -3172 1194 -2712 0
3146 -3172 -1194 2712 0
3146 -3172 866 -841 0
3146 -3172 -866 841 0
3146 -3172 2651 -1398 0
3146 -3172 -2651 1398 0
3146 -3172 1921 -452 0
3146 -3172 -1921 452 0
3146 3172 659 0
3146 3172 819 0
3146 3172 -825 0
3146 3172 -1372 0
3146 3172 1194 -819 0
3146 3172 -1194 819 0
3146 3172 866 -1372 0
3146 3172 -866 1372 0
3146 3172 2651 -659 0
3146 3172 -2651 659 0
3146 3172 1921 -825 0
3146 3172 -1921 825 0
3146 2389 0
3146 2488 -1194 0
3146 -2488 1194 0
3146 256 -866 0
3146 -256 866 0
3146 392 -2651 0
3146 -392 2651 0
3146 913 -1921 0
3146 -913 1921 0
-550 -2200 -2894 0
-550 -2200 -652 0
-550 -2200 -2291 0
-550 -2200 -1279 0
-550 -2200 1780 -652 0
-550 -2200 -1780 652 0
-550 -2200 542 -1279 0
-550 -2200 -542 1279 0
-550 -2200 1455 -2894 0
-550 -2200 -1455 2894 0
-550 -2200 2911 -2291 0
-550 -2200 -2911 2291 0
-550 2200 94 0
-550 2200 2875 0
-550 2200 1016 0
-550 2200 780 0
-550 2200 1780 -2875 0
-550 2200 -1780 2875 0
-550 2200 542 -780 0
-550 2200 -542 780 0
-550 2200 1455 -94 0
-550 2200 -1455 94 0
-550 2200 2911 -1016 0
-550 2200 -2911 1016 0
-550 2675 0
-550 997 -1780 0
-550 -997 1780 0
-550 1263 -542 0
-550 -1263 542 0
-550 1086 -1455 0
-550 -1086 1455 0
-550 404 -2911 0
-550 -404 2911 0
550 -2384 -2050 0
550 -2384 -468 0
550 -2384 3173 0
550 -2384 864 0
550 -2384 959 -468 0
550 -2384 -959 468 0
550 -2384 555 -864 0
550 -2384 -555 864 0
550 -2384 857 -2050 0
550 -2384 -857 2050 0
550 -2384 2835 -3173 0
550 -2384 -2835 3173 0
550 2384 32 0
550 2384 1812 0
550 2384 -329 0
550 2384 -1964 0
550 2384 959 -1812 0
550 2384 -959 1812 0
550 2384 555 -1964 0
550 2384 -555 1964 0
550 2384 857 -32 0
550 2384 -857 32 0
550 2384 2835 -329 0
550 2384 -2835 329 0
550 2497 0
550 997 -959 0
550 -997 959 0
550 1263 -555 0
550 -1263 555 0
550 1086 -857 0
550 -1086 857 0
550 404 -2835 0
550 -404 2835 0
-3056 -1849 -2230 0
-3056 -1849 -152 0
-3056 -1849 -1633 0
-3056 -1849 -605 0
-3056 -1849 223 -152 0
-3056 -1849 -223 152 0
-3056 -1849 1992 -605 0
-3056 -1849 -1992 605 0
-3056 -1849 2072 -2230 0
-3056 -1849 -2072 2230 0
-3056 -1849 877 -1633 0
-3056 -1849 -877 1633 0
-3056 1849 990 0
-3056 1849 1182 0
-3056 1849 2276 0
-3056 1849 695 0
-3056 1849 223 -1182 0
-3056 1849 -223 1182 0
-3056 1849 1992 -695 0
-3056 1849 -1992 695 0
-3056 1849 2072 -990 0
-3056 1849 -2072 990 0
-3056 1849 877 -2276 0
-3056 1849 -877 2276 0
-3056 2895 0
-3056 1020 -223 0
-3056 -1020 223 0
-3056 1391 -1992 0
-3056 -1391 1992 0
-3056 997 -2072 0
-3056 -997 2072 0
-3056 256 -877 0
-3056 -256 877 0
3056 -3024 -2425 0
3056 -3024 -1677 0
3056 -3024 1866 0
3056 -3024 2156 0
3056 -3024 1304 -1677 0
3056 -3024 -1304 1677 0
3056 -3024 3015 -2156 0
3056 -3024 -3015 2156 0
3056 -3024 382 -2425 0
3056 -3024 -382 2425 0
3056 -3024 1051 -1866 0
3056 -3024 -1051 1866 0
3056 3024 1981 0
3056 3024 1383 0
3056 3024 -2386 0
3056 3024 -2251 0
3056 3024 1304 -1383 0
3056 3024 -1304 1383 0
3056 3024 3015 -2251 0
3056 3024 -3015 2251 0
3056 3024 382 -1981 0
3056 3024 -382 1981 0
3056 3024 1051 -2386 0
3056 3024 -1051 2386 0
3056 1189 0
3056 1020 -1304 0
3056 -1020 1304 0
3056 1391 -3015 0
3056 -1391 3015 0
3056 997 -382 0
3056 -997 382 0
3056 256 -1051 0
3056 -256 1051 0
-387 -2599 -314 0
-387 -2599 -1867 0
-387 -2599 -391 0
-387 -2599 -1795 0
-387 -2599 2297 -1867 0
-387 -2599 -2297 1867 0
-387 -2599 3175 -1795 0
-387 -2599 -3175 1795 0
-387 -2599 1618 -314 0
-387 -2599 -1618 314 0
-387 -2599 249 -391 0
-387 -2599 -249 391 0
-387 2599 1321 0
-387 2599 2753 0
-387 2599 2304 0
-387 2599 3152 0
-387 2599 2297 -2753 0
-387 2599 -2297 2753 0
-387 2599 3175 -3152 0
-387 2599 -3175 3152 0
-387 2599 1618 -1321 0
-387 2599 -1618 1321 0
-387 2599 249 -2304 0
-387 2599 -249 2304 0
-387 2938 0
-387 2667 -2297 0
-387 -2667 2297 0
-387 1990 -3175 0
-387 -1990 3175 0
-387 833 -1618 0
-387 -833 1618 0
-387 1587 -249 0
-387 -1587 249 0
387 -3059 -63 0
387 -3059 -1503 0
387 -3059 170 0
387 -3059 3082 0
387 -3059 983 -1503 0
387 -3059 -983 1503 0
387 -3059 2883 -3082 0
387 -3059 -2883 3082 0
387 -3059 2561 -63 0
387 -3059 -2561 63 0
387 -3059 166 -170 0
387 -3059 -166 170 0
387 3059 1166 0
387 3059 2642 0
387 3059 -2671 0
387 3059 -1742 0
387 3059 983 -2642 0
387 3059 -983 2642 0
387 3059 2883 -1742 0
387 3059 -2883 1742 0
387 3059 2561 -1166 0
387 3059 -2561 1166 0
387 3059 166 -2671 0
387 3059 -166 2671 0
387 1548 0
387 2667 -983 0
387 -2667 983 0
387 1990 -2883 0
387 -1990 2883 0
387 833 -2561 0
387 -833 2561 0
387 1587 -166 0
387 -1587 166 0
-2745 -2812 -3085 0
-2745 -2812 -1872 0
-2745 -2812 -2091 0
-2745 -2812 -2971 0
-2745 -2812 1707 -1872 0
-2745 -2812 -1707 1872 0
-2745 -2812 624 -2971 0
-2745 -2812 -624 2971 0
-2745 -2812 980 -3085 0
-2745 -2812 -980 3085 0
-2745 -2812 1032 -2091 0
-2745 -2812 -1032 2091 0
-2745 2812 2313 0
-2745 2812 2877 0
-2745 2812 2003 0
-2745 2812 2415 0
-2745 2812 1707 -2877 0
-2745 2812 -1707 2877 0
-2745 2812 624 -2415 0
-2745 2812 -624 2415 0
-2745 2812 980 -2313 0
-2745 2812 -980 2313 0
-2745 2812 1032 -2003 0
-2745 2812 -1032 2003 0
-2745 1243 0
-2745 3013 -1707 0
-2745 -3013 1707 0
-2745 1786 -624 0
-2745 -1786 624 0
-2745 2667 -980 0
-2745 -2667 980 0
-2745 3038 -1032 0
-2745 -3038 1032 0
2745 -1180 -232 0
2745 -1180 -2563 0
2745 -1180 2084 0
2745 -1180 2586 0
2745 -1180 1502 -2563 0
2745 -1180 -1502 2563 0
2745 -1180 764 -2586 0
2745 -1180 -764 2586 0
2745 -1180 1149 -232 0
2745 -1180 -1149 232 0
2745 -1180 2585 -2084 0
2745 -1180 -2585 2084 0
2745 1180 2673 0
2745 1180 1847 0
2745 1180 -1781 0
2745 1180 -2033 0
2745 1180 1502 -1847 0
2745 1180 -1502 1847 0
2745 1180 764 -2033 0
2745 1180 -764 2033 0
2745 1180 1149 -2673 0
2745 1180 -1149 2673 0
2745 1180 2585 -1781 0
2745 1180 -2585 1781 0
2745 2775 0
2745 3013 -1502 0
2745 -3013 1502 0
2745 1786 -764 0
2745 -1786 764 0
2745 2667 -1149 0
2745 -2667 1149 0
2745 3038 -2585 0
2745 -3038 2585 0
-910 -2786 -2649 0
-910 -2786 -2858 0
-910 -2786 -1114 0
-910 -2786 -2614 0
-910 -2786 1343 -2858 0
-910 -2786 -1343 2858 0
-910 -2786 2797 -2614 0
-910 -2786 -2797 2614 0
-910 -2786 1863 -2649 0
-910 -2786 -1863 2649 0
-910 -2786 423 -1114 0
-910 -2786 -423 1114 0
-910 2786 794 0
-910 2786 92 0
-910 2786 1589 0
-910 2786 295 0
-910 2786 1343 -92 0
-910 2786 -1343 92 0
-910 2786 2797 -295 0
-910 2786 -2797 295 0
-910 2786 1863 -794 0
-910 2786 -1863 794 0
-910 2786 423 -1589 0
-910 2786 -423 1589 0
-910 671 0
-910 770 -1343 0
-910 -770 1343 0
-910 1931 -2797 0
-910 -1931 2797 0
-910 3013 -1863 0
-910 -3013 1863 0
-910 1263 -423 0
-910 -1263 423 0
910 -1630 -2845 0
910 -1630 -1440 0
910 -1630 2900 0
910 -1630 1574 0
910 -1630 1261 -1440 0
910 -1630 -1261 1440 0
910 -1630 304 -1574 0
910 -1630 -304 1574 0
910 -1630 2248 -2845 0
910 -1630 -2248 2845 0
910 -1630 1751 -2900 0
910 -1630 -1751 2900 0
910 1630 1001 0
910 1630 537 0
910 1630 -879 0
910 1630 -1281 0
910 1630 1261 -537 0
910 1630 -1261 537 0
910 1630 304 -1281 0
910 1630 -304 1281 0
910 1630 2248 -1001 0
910 1630 -2248 1001 0
910 1630 1751 -879 0
910 1630 -1751 879 0
910 1407 0
910 770 -1261 0
910 -770 1261 0
910 1931 -304 0
910 -1931 304 0
910 3013 -2248 0
910 -3013 2248 0
910 1263 -1751 0
910 -1263 1751 0
-2607 -184 -464 0
-2607 -184 -1581 0
-2607 -184 -694 0
-2607 -184 -511 0
-2607 -184 823 -1581 0
-2607 -184 -823 1581 0
-2607 -184 1948 -511 0
-2607 -184 -1948 511 0
-2607 -184 1607 -464 0
-2607 -184 -1607 464 0
-2607 -184 1108 -694 0
-2607 -184 -1108 694 0
-2607 184 2456 0
-2607 184 1325 0
-2607 184 1179 0
-2607 184 272 0
-2607 184 823 -1325 0
-2607 184 -823 1325 0
-2607 184 1948 -272 0
-2607 184 -1948 272 0
-2607 184 1607 -2456 0
-2607 184 -1607 2456 0
-2607 184 1108 -1179 0
-2607 184 -1108 1179 0
-2607 1291 0
-2607 2843 -823 0
-2607 -2843 823 0
-2607 283 -1948 0
-2607 -283 1948 0
-2607 770 -1607 0
-2607 -770 1607 0
-2607 1529 -1108 0
-2607 -1529 1108 0
2607 -3079 -2071 0
2607 -3079 -1292 0
2607 -3079 880 0
2607 -3079 2757 0
2607 -3079 1531 -1292 0
2607 -3079 -1531 1292 0
2607 -3079 895 -2757 0
2607 -3079 -895 2757 0
2607 -3079 1913 -2071 0
2607 -3079 -1913 2071 0
2607 -3079 3096 -880 0
2607 -3079 -3096 880 0
2607 3079 2076 0
2607 3079 366 0
2607 3079 -1003 0
2607 3079 -708 0
2607 3079 1531 -366 0
2607 3079 -1531 366 0
2607 3079 895 -708 0
2607 3079 -895 708 0
2607 3079 1913 -2076 0
2607 3079 -1913 2076 0
2607 3079 3096 -1003 0
2607 3079 -3096 1003 0
2607 2487 0
2607 2843 -1531 0
2607 -2843 1531 0
2607 283 -895 0
2607 -283 895 0
2607 770 -1913 0
2607 -770 1913 0
2607 1529 -3096 0
2607 -1529 3096 0
-2266 -1827 -1675 0
-2266 -1827 -2841 0
-2266 -1827 -2346 0
-2266 -1827 -104 0
-2266 -1827 679 -2841 0
-2266 -1827 -679 2841 0
-2266 -1827 3167 -104 0
-2266 -1827 -3167 104 0
-2266 -1827 1841 -1675 0
-2266 -1827 -1841 1675 0
-2266 -1827 1359 -2346 0
-2266 -1827 -1359 2346 0
-2266 1827 2861 0
-2266 1827 706 0
-2266 1827 1236 0
-2266 1827 930 0
-2266 1827 679 -706 0
-2266 1827 -679 706 0
-2266 1827 3167 -930 0
-2266 1827 -3167 930 0
-2266 1827 1841 -2861 0
-2266 1827 -1841 2861 0
-2266 1827 1359 -1236 0
-2266 1827 -1359 1236 0
-2266 358 0
-2266 2616 -679 0
-2266 -2616 679 0
-2266 2283 -3167 0
-2266 -2283 3167 0
-2266 760 -1841 0
-2266 -760 1841 0
-2266 1868 -1359 0
-2266 -1868 1359 0
2266 -1435 -1469 0
2266 -1435 -2427 0
2266 -1435 2968 0
2266 -1435 2909 0
2266 -1435 1817 -2427 0
2266 -1435 -1817 2427 0
2266 -1435 2103 -2909 0
2266 -1435 -2103 2909 0
2266 -1435 1376 -1469 0
2266 -1435 -1376 1469 0
2266 -1435 1594 -2968 0
2266 -1435 -1594 2968 0
2266 1435 1901 0
2266 1435 1902 0
2266 1435 -966 0
2266 1435 -1816 0
2266 1435 1817 -1902 0
2266 1435 -1817 1902 0
2266 1435 2103 -1816 0
2266 1435 -2103 1816 0
2266 1435 1376 -1901 0
2266 1435 -1376 1901 0
2266 1435 1594 -966 0
2266 1435 -1594 966 0
2266 1793 0
2266 2616 -1817 0
2266 -2616 1817 0
2266 2283 -2103 0
2266 -2283 2103 0
2266 760 -1376 0
2266 -760 1376 0
2266 1868 -1594 0
2266 -1868 1594 0
-2104 -656 -2693 0
-2104 -656 -2396 0
-2104 -656 -1917 0
-2104 -656 -3072 0
-2104 -656 3100 -2396 0
-2104 -656 -3100 2396 0
-2104 -656 2314 -3072 0
-2104 -656 -2314 3072 0
-2104 -656 1606 -2693 0
-2104 -656 -1606 2693 0
-2104 -656 852 -1917 0
-2104 -656 -852 1917 0
-2104 656 2274 0
-2104 656 6 0
-2104 656 702 0
-2104 656 364 0
-2104 656 3100 -6 0
-2104 656 -3100 6 0
-2104 656 2314 -364 0
-2104 656 -2314 364 0
-2104 656 1606 -2274 0
-2104 656 -1606 2274 0
-2104 656 852 -702 0
-2104 656 -852 702 0
-2104 2714 0
-2104 1170 -3100 0
-2104 -1170 3100 0
-2104 1434 -2314 0
-2104 -1434 2314 0
-2104 2616 -1606 0
-2104 -2616 1606 0
-2104 1412 -852 0
-2104 -1412 852 0
2104 -1138 -1949 0
2104 -1138 -2921 0
2104 -1138 1564 0
2104 -1138 2073 0
2104 -1138 1145 -2921 0
2104 -1138 -1145 2921 0
2104 -1138 1468 -2073 0
2104 -1138 -1468 2073 0
2104 -1138 2194 -1949 0
2104 -1138 -2194 1949 0
2104 -1138 2590 -1564 0
2104 -1138 -2590 1564 0
2104 1138 2310 0
2104 1138 2706 0
2104 1138 -1613 0
2104 1138 -1623 0
2104 1138 1145 -2706 0
2104 1138 -1145 2706 0
2104 1138 1468 -1623 0
2104 1138 -1468 1623 0
2104 1138 2194 -2310 0
2104 1138 -2194 2310 0
2104 1138 2590 -1613 0
2104 1138 -2590 1613 0
2104 306 0
2104 1170 -1145 0
2104 -1170 1145 0
2104 1434 -1468 0
2104 -1434 1468 0
2104 2616 -2194 0
2104 -2616 2194 0
2104 1412 -2590 0
2104 -1412 2590 0
-3117 -552 -111 0
-3117 -552 -3000 0
-3117 -552 -491 0
-3117 -552 -626 0
-3117 -552 1639 -3000 0
-3117 -552 -1639 3000 0
-3117 -552 3048 -626 0
-3117 -552 -3048 626 0
-3117 -552 2242 -111 0
-3117 -552 -2242 111 0
-3117 -552 1740 -491 0
-3117 -552 -1740 491 0
-3117 552 1463 0
-3117 552 3169 0
-3117 552 1087 0
-3117 552 2780 0
-3117 552 1639 -3169 0
-3117 552 -1639 3169 0
-3117 552 3048 -2780 0
-3117 552 -3048 2780 0
-3117 552 2242 -1463 0
-3117 552 -2242 1463 0
-3117 552 1740 -1087 0
-3117 552 -1740 1087 0
-3117 855 0
-3117 2341 -1639 0
-3117 -2341 1639 0
-3117 1306 -3048 0
-3117 -1306 3048 0
-3117 1170 -2242 0
-3117 -1170 2242 0
-3117 1391 -1740 0
-3117 -1391 1740 0
3117 -1 -1473 0
3117 -1 -3042 0
3117 -1 1760 0
3117 -1 2190 0
3117 -1 3102 -3042 0
3117 -1 -3102 3042 0
3117 -1 2765 -2190 0
3117 -1 -2765 2190 0
3117 -1 2380 -1473 0
3117 -1 -2380 1473 0
3117 -1 1275 -1760 0
3117 -1 -1275 1760 0
3117 1 413 0
3117 1 514 0
3117 1 -2690 0
3117 1 -3090 0
3117 1 3102 -514 0
3117 1 -3102 514 0
3117 1 2765 -3090 0
3117 1 -2765 3090 0
3117 1 2380 -413 0
3117 1 -2380 413 0
3117 1 1275 -2690 0
3117 1 -1275 2690 0
3117 2059 0
3117 2341 -3102 0
3117 -2341 3102 0
3117 1306 -2765 0
3117 -1306 2765 0
3117 1170 -2380 0
3117 -1170 2380 0
3117 1391 -1275 0
3117 -1391 1275 0
-1897 -844 -1159 0
-1897 -844 -1516 0
-1897 -844 -1350 0
-1897 -844 -179 0
-1897 -844 1984 -1516 0
-1897 -844 -1984 1516 0
-1897 -844 2638 -179 0
-1897 -844 -2638 179 0
-1897 -844 3148 -1159 0
-1897 -844 -3148 1159 0
-1897 -844 1619 -1350 0
-1897 -844 -1619 1350 0
-1897 844 466 0
-1897 844 2187 0
-1897 844 2723 0
-1897 844 2976 0
-1897 844 1984 -2187 0
-1897 844 -1984 2187 0
-1897 844 2638 -2976 0
-1897 844 -2638 2976 0
-1897 844 3148 -466 0
-1897 844 -3148 466 0
-1897 844 1619 -2723 0
-1897 844 -1619 2723 0
-1897 1509 0
-1897 2652 -1984 0
-1897 -2652 1984 0
-1897 1691 -2638 0
-1897 -1691 2638 0
-1897 1990 -3148 0
-1897 -1990 3148 0
-1897 461 -1619 0
-1897 -461 1619 0
1897 -2270 -1811 0
1897 -2270 -1082 0
1897 -2270 1963 0
1897 -2270 1970 0
1897 -2270 469 -1082 0
1897 -2270 -469 1082 0
1897 -2270 600 -1970 0
1897 -2270 -600 1970 0
1897 -2270 2695 -1811 0
1897 -2270 -2695 1811 0
1897 -2270 2924 -1963 0
1897 -2270 -2924 1963 0
1897 2270 2302 0
1897 2270 2657 0
1897 2270 -728 0
1897 2270 -1354 0
1897 2270 469 -2657 0
1897 2270 -469 2657 0
1897 2270 600 -1354 0
1897 2270 -600 1354 0
1897 2270 2695 -2302 0
1897 2270 -2695 2302 0
1897 2270 2924 -728 0
1897 2270 -2924 728 0
1897 2717 0
1897 2652 -469 0
1897 -2652 469 0
1897 1691 -600 0
1897 -1691 600 0
1897 1990 -2695 0
1897 -1990 2695 0
1897 461 -2924 0
1897 -461 2924 0
-1982 -1015 -2201 0
-1982 -1015 -2646 0
-1982 -1015 -1666 0
-1982 -1015 -3003 0
-1982 -1015 872 -2646 0
-1982 -1015 -872 2646 0
-1982 -1015 1551 -3003 0
-1982 -1015 -1551 3003 0
-1982 -1015 68 -2201 0
-1982 -1015 -68 2201 0
-1982 -1015 3188 -1666 0
-1982 -1015 -3188 1666 0
-1982 1015 1160 0
-1982 1015 2101 0
-1982 1015 2397 0
-1982 1015 947 0
-1982 1015 872 -2101 0
-1982 1015 -872 2101 0
-1982 1015 1551 -947 0
-1982 1015 -1551 947 0
-1982 1015 68 -1160 0
-1982 1015 -68 1160 0
-1982 1015 3188 -2397 0
-1982 1015 -3188 2397 0
-1982 639 0
-1982 1952 -872 0
-1982 -1952 872 0
-1982 1329 -1551 0
-1982 -1329 1551 0
-1982 2652 -68 0
-1982 -2652 68 0
-1982 1714 -3188 0
-1982 -1714 3188 0
1982 -561 -1549 0
1982 -561 -703 0
1982 -561 2677 0
1982 -561 2622 0
1982 -561 1732 -703 0
1982 -561 -1732 703 0
1982 -561 999 -2622 0
1982 -561 -999 2622 0
1982 -561 1988 -1549 0
1982 -561 -1988 1549 0
1982 -561 905 -2677 0
1982 -561 -905 2677 0
1982 561 3055 0
1982 561 847 0
1982 561 -1437 0
1982 561 -1711 0
1982 561 1732 -847 0
1982 561 -1732 847 0
1982 561 999 -1711 0
1982 561 -999 1711 0
1982 561 1988 -3055 0
1982 561 -1988 3055 0
1982 561 905 -1437 0
1982 561 -905 1437 0
1982 31 0
1982 1952 -1732 0
1982 -1952 1732 0
1982 1329 -999 0
1982 -1329 999 0
1982 2652 -1988 0
1982 -2652 1988 0
1982 1714 -905 0
1982 -1714 905 0
-942 -786 -397 0
-942 -786 -505 0
-942 -786 -2867 0
-942 -786 -973 0
-942 -786 84 -505 0
-942 -786 -84 505 0
-942 -786 2830 -973 0
-942 -786 -2830 973 0
-942 -786 3097 -397 0
-942 -786 -3097 397 0
-942 -786 1143 -2867 0
-942 -786 -1143 2867 0
-942 786 1158 0
-942 786 93 0
-942 786 1704 0
-942 786 1858 0
-942 786 84 -93 0
-942 786 -84 93 0
-942 786 2830 -1858 0
-942 786 -2830 1858 0
-942 786 3097 -1158 0
-942 786 -3097 1158 0
-942 786 1143 -1704 0
-942 786 -1143 1704 0
-942 1520 0
-942 1172 -84 0
-942 -1172 84 0
-942 2117 -2830 0
-942 -2117 2830 0
-942 1952 -3097 0
-942 -1952 3097 0
-942 762 -1143 0
-942 -762 1143 0
942 -608 -2837 0
942 -608 -2029 0
942 -608 299 0
942 -608 2980 0
942 -608 1635 -2029 0
942 -608 -1635 2029 0
942 -608 2489 -2980 0
942 -608 -2489 2980 0
942 -608 2163 -2837 0
942 -608 -2163 2837 0
942 -608 1555 -299 0
942 -608 -1555 299 0
942 608 2719 0
942 608 412 0
942 608 -2806 0
942 608 -129 0
942 608 1635 -412 0
942 608 -1635 412 0
942 608 2489 -129 0
942 608 -2489 129 0
942 608 2163 -2719 0
942 608 -2163 2719 0
942 608 1555 -2806 0
942 608 -1555 2806 0
942 2569 0
942 1172 -1635 0
942 -1172 1635 0
942 2117 -2489 0
942 -2117 2489 0
942 1952 -2163 0
942 -1952 2163 0
942 762 -1555 0
942 -762 1555 0
-690 -2492 -1175 0
-690 -2492 -1747 0
-690 -2492 -3051 0
-690 -2492 -1668 0
-690 -2492 2518 -1747 0
-690 -2492 -2518 1747 0
-690 -2492 1178 -1668 0
-690 -2492 -1178 1668 0
-690 -2492 1249 -1175 0
-690 -2492 -1249 1175 0
-690 -2492 1989 -3051 0
-690 -2492 -1989 3051 0
-690 2492 3157 0
-690 2492 589 0
-690 2492 2424 0
-690 2492 2118 0
-690 2492 2518 -589 0
-690 2492 -2518 589 0
-690 2492 1178 -2118 0
-690 2492 -1178 2118 0
-690 2492 1249 -3157 0
-690 2492 -1249 3157 0
-690 2492 1989 -2424 0
-690 2492 -1989 2424 0
-690 1332 0
-690 1298 -2518 0
-690 -1298 2518 0
-690 2942 -1178 0
-690 -2942 1178 0
-690 1172 -1249 0
-690 -1172 1249 0
-690 1931 -1989 0
-690 -1931 1989 0
690 -2689 -2762 0
690 -2689 -172 0
690 -2689 1057 0
690 -2689 2130 0
690 -2689 2613 -172 0
690 -2689 -2613 172 0
690 -2689 1801 -2130 0
690 -2689 -1801 2130 0
690 -2689 743 -2762 0
690 -2689 -743 2762 0
690 -2689 86 -1057 0
690 -2689 -86 1057 0
690 2689 145 0
690 2689 592 0
690 2689 -749 0
690 2689 -201 0
690 2689 2613 -592 0
690 2689 -2613 592 0
690 2689 1801 -201 0
690 2689 -1801 201 0
690 2689 743 -145 0
690 2689 -743 145 0
690 2689 86 -749 0
690 2689 -86 749 0
690 1013 0
690 1298 -2613 0
690 -1298 2613 0
690 2942 -1801 0
690 -2942 1801 0
690 1172 -743 0
690 -1172 743 0
690 1931 -86 0
690 -1931 86 0
-2153 -1873 -607 0
-2153 -1873 -1310 0
-2153 -1873 -2199 0
-2153 -1873 -1165 0
-2153 -1873 2382 -1310 0
-2153 -1873 -2382 1310 0
-2153 -1873 1681 -1165 0
-2153 -1873 -1681 1165 0
-2153 -1873 2197 -607 0
-2153 -1873 -2197 607 0
-2153 -1873 2990 -2199 0
-2153 -1873 -2990 2199 0
-2153 1873 356 0
-2153 1873 3164 0
-2153 1873 1767 0
-2153 1873 89 0
-2153 1873 2382 -3164 0
-2153 1873 -2382 3164 0
-2153 1873 1681 -89 0
-2153 1873 -1681 89 0
-2153 1873 2197 -356 0
-2153 1873 -2197 356 0
-2153 1873 2990 -1767 0
-2153 1873 -2990 1767 0
-2153 1465 0
-2153 827 -2382 0
-2153 -827 2382 0
-2153 59 -1681 0
-2153 -59 1681 0
-2153 1776 -2197 0
-2153 -1776 2197 0
-2153 1434 -2990 0
-2153 -1434 2990 0
2153 -3073 -1355 0
2153 -3073 -2880 0
2153 -3073 2294 0
2153 -3073 2305 0
2153 -3073 579 -2880 0
2153 -3073 -579 2880 0
2153 -3073 259 -2305 0
2153 -3073 -259 2305 0
2153 -3073 2633 -1355 0
2153 -3073 -2633 1355 0
2153 -3073 2090 -2294 0
2153 -3073 -2090 2294 0
2153 3073 1349 0
2153 3073 2662 0
2153 3073 -2618 0
2153 3073 -2724 0
2153 3073 579 -2662 0
2153 3073 -579 2662 0
2153 3073 259 -2724 0
2153 3073 -259 2724 0
2153 3073 2633 -1349 0
2153 3073 -2633 1349 0
2153 3073 2090 -2618 0
2153 3073 -2090 2618 0
2153 1718 0
2153 827 -579 0
2153 -827 579 0
2153 59 -259 0
2153 -59 259 0
2153 1776 -2633 0
2153 -1776 2633 0
2153 1434 -2090 0
2153 -1434 2090 0
-2789 -224 -733 0
-2789 -224 -1733 0
-2789 -224 -1065 0
-2789 -224 -418 0
-2789 -224 1507 -1733 0
-2789 -224 -1507 1733 0
-2789 -224 1911 -418 0
-2789 -224 -1911 418 0
-2789 -224 2528 -733 0
-2789 -224 -2528 733 0
-2789 -224 604 -1065 0
-2789 -224 -604 1065 0
-2789 224 1918 0
-2789 224 1570 0
-2789 224 1043 0
-2789 224 726 0
-2789 224 1507 -1570 0
-2789 224 -1507 1570 0
-2789 224 1911 -726 0
-2789 224 -1911 726 0
-2789 224 2528 -1918 0
-2789 224 -2528 1918 0
-2789 224 604 -1043 0
-2789 224 -604 1043 0
-2789 2564 0
-2789 1451 -1507 0
-2789 -1451 1507 0
-2789 738 -1911 0
-2789 -738 1911 0
-2789 827 -2528 0
-2789 -827 2528 0
-2789 1871 -604 0
-2789 -1871 604 0
2789 -701 -24 0
2789 -701 -2853 0
2789 -701 2001 0
2789 -701 2180 0
2789 -701 2687 -2853 0
2789 -701 -2687 2853 0
2789 -701 2823 -2180 0
2789 -701 -2823 2180 0
2789 -701 2356 -24 0
2789 -701 -2356 24 0
2789 -701 2400 -2001 0
2789 -701 -2400 2001 0
2789 701 315 0
2789 701 926 0
2789 701 -1036 0
2789 701 -1381 0
2789 701 2687 -926 0
2789 701 -2687 926 0
2789 701 2823 -1381 0
2789 701 -2823 1381 0
2789 701 2356 -315 0
2789 701 -2356 315 0
2789 701 2400 -1036 0
2789 701 -2400 1036 0
2789 640 0
2789 1451 -2687 0
2789 -1451 2687 0
2789 738 -2823 0
2789 -738 2823 0
2789 827 -2356 0
2789 -827 2356 0
2789 1871 -2400 0
2789 -1871 2400 0
-1423 -927 -1241 0
-1423 -927 -1358 0
-1423 -927 -1395 0
-1423 -927 -1890 0
-1423 -927 3094 -1358 0
-1423 -927 -3094 1358 0
-1423 -927 2948 -1890 0
-1423 -927 -2948 1890 0
-1423 -927 3109 -1241 0
-1423 -927 -3109 1241 0
-1423 -927 675 -1395 0
-1423 -927 -675 1395 0
-1423 927 2264 0
-1423 927 2532 0
-1423 927 2388 0
-1423 927 804 0
-1423 927 3094 -2532 0
-1423 927 -3094 2532 0
-1423 927 2948 -804 0
-1423 927 -2948 804 0
-1423 927 3109 -2264 0
-1423 927 -3109 2264 0
-1423 927 675 -2388 0
-1423 927 -675 2388 0
-1423 2790 0
-1423 2357 -3094 0
-1423 -2357 3094 0
-1423 2141 -2948 0
-1423 -2141 2948 0
-1423 1066 -3109 0
-1423 -1066 3109 0
-1423 861 -675 0
-1423 -861 675 0
1423 -2423 -2589 0
1423 -2423 -2656 0
1423 -2423 1027 0
1423 -2423 581 0
1423 -2423 188 -2656 0
1423 -2423 -188 2656 0
1423 -2423 1102 -581 0
1423 -2423 -1102 581 0
1423 -2423 2351 -2589 0
1423 -2423 -2351 2589 0
1423 -2423 206 -1027 0
1423 -2423 -206 1027 0
1423 2423 1660 0
1423 2423 668 0
1423 2423 -2082 0
1423 2423 -69 0
1423 2423 188 -668 0
1423 2423 -188 668 0
1423 2423 1102 -69 0
1423 2423 -1102 69 0
1423 2423 2351 -1660 0
1423 2423 -2351 1660 0
1423 2423 206 -2082 0
1423 2423 -206 2082 0
1423 1754 0
1423 2357 -188 0
1423 -2357 188 0
1423 2141 -1102 0
1423 -2141 1102 0
1423 1066 -2351 0
1423 -1066 2351 0
1423 861 -206 0
1423 -861 206 0
-1209 -2081 -2238 0
-1209 -2081 -2179 0
-1209 -2081 -882 0
-1209 -2081 -470 0
-1209 -2081 3012 -2179 0
-1209 -2081 -3012 2179 0
-1209 -2081 1128 -470 0
-1209 -2081 -1128 470 0
-1209 -2081 1088 -2238 0
-1209 -2081 -1088 2238 0
-1209 -2081 1371 -882 0
-1209 -2081 -1371 882 0
-1209 2081 1697 0
-1209 2081 395 0
-1209 2081 2127 0
-1209 2081 2368 0
-1209 2081 3012 -395 0
-1209 2081 -3012 395 0
-1209 2081 1128 -2368 0
-1209 2081 -1128 2368 0
-1209 2081 1088 -1697 0
-1209 2081 -1088 1697 0
-1209 2081 1371 -2127 0
-1209 2081 -1371 2127 0
-1209 3139 0
-1209 2742 -3012 0
-1209 -2742 3012 0
-1209 920 -1128 0
-1209 -920 1128 0
-1209 2526 -1088 0
-1209 -2526 1088 0
-1209 1684 -1371 0
-1209 -1684 1371 0
1209 -237 -846 0
1209 -237 -2032 0
1209 -237 1007 0
1209 -237 2808 0
1209 -237 2562 -2032 0
1209 -237 -2562 2032 0
1209 -237 715 -2808 0
1209 -237 -715 2808 0
1209 -237 2418 -846 0
1209 -237 -2418 846 0
1209 -237 482 -1007 0
1209 -237 -482 1007 0
1209 237 496 0
1209 237 1309 0
1209 237 -1069 0
1209 237 -1040 0
1209 237 2562 -1309 0
1209 237 -2562 1309 0
1209 237 715 -1040 0
1209 237 -715 1040 0
1209 237 2418 -496 0
1209 237 -2418 496 0
1209 237 482 -1069 0
1209 237 -482 1069 0
1209 718 0
1209 2742 -2562 0
1209 -2742 2562 0
1209 920 -715 0
1209 -920 715 0
1209 2526 -2418 0
1209 -2526 2418 0
1209 1684 -482 0
1209 -1684 482 0
-2021 -1916 -506 0
-2021 -1916 -1135 0
-2021 -1916 -3189 0
-2021 -1916 -1937 0
-2021 -1916 3155 -1135 0
-2021 -1916 -3155 1135 0
-2021 -1916 2840 -1937 0
-2021 -1916 -2840 1937 0
-2021 -1916 1347 -506 0
-2021 -1916 -1347 506 0
-2021 -1916 522 -3189 0
-2021 -1916 -522 3189 0
-2021 1916 282 0
-2021 1916 219 0
-2021 1916 3181 0
-2021 1916 768 0
-2021 1916 3155 -219 0
-2021 1916 -3155 219 0
-2021 1916 2840 -768 0
-2021 1916 -2840 768 0
-2021 1916 1347 -282 0
-2021 1916 -1347 282 0
-2021 1916 522 -3181 0
-2021 1916 -522 3181 0
-2021 197 0
-2021 2912 -3155 0
-2021 -2912 3155 0
-2021 2989 -2840 0
-2021 -2989 2840 0
-2021 2742 -1347 0
-2021 -2742 1347 0
-2021 1978 -522 0
-2021 -1978 522 0
2021 -792 -1755 0
2021 -792 -2432 0
2021 -792 2414 0
2021 -792 1196 0
2021 -792 2053 -2432 0
2021 -792 -2053 2432 0
2021 -792 2524 -1196 0
2021 -792 -2524 1196 0
2021 -792 549 -1755 0
2021 -792 -549 1755 0
2021 -792 2954 -2414 0
2021 -792 -2954 2414 0
2021 792 1420 0
2021 792 683 0
2021 792 -2505 0
2021 792 -1010 0
2021 792 2053 -683 0
2021 792 -2053 683 0
2021 792 2524 -1010 0
2021 792 -2524 1010 0
2021 792 549 -1420 0
2021 792 -549 1420 0
2021 792 2954 -2505 0
2021 792 -2954 2505 0
2021 1655 0
2021 2912 -2053 0
2021 -2912 2053 0
2021 2989 -2524 0
2021 -2989 2524 0
2021 2742 -549 0
2021 -2742 549 0
2021 1978 -2954 0
2021 -1978 2954 0
-2726 -636 -399 0
-2726 -636 -3067 0
-2726 -636 -401 0
-2726 -636 -2453 0
-2726 -636 2359 -3067 0
-2726 -636 -2359 3067 0
-2726 -636 2577 -2453 0
-2726 -636 -2577 2453 0
-2726 -636 1039 -399 0
-2726 -636 -1039 399 0
-2726 -636 1605 -401 0
-2726 -636 -1605 401 0
-2726 636 271 0
-2726 636 296 0
-2726 636 1792 0
-2726 636 2862 0
-2726 636 2359 -296 0
-2726 636 -2359 296 0
-2726 636 2577 -2862 0
-2726 636 -2577 2862 0
-2726 636 1039 -271 0
-2726 636 -1039 271 0
-2726 636 1605 -1792 0
-2726 636 -1605 1792 0
-2726 595 0
-2726 2710 -2359 0
-2726 -2710 2359 0
-2726 1000 -2577 0
-2726 -1000 2577 0
-2726 2912 -1039 0
-2726 -2912 1039 0
-2726 59 -1605 0
-2726 -59 1605 0
2726 -310 -3084 0
2726 -310 -2134 0
2726 -310 2484 0
2726 -310 2247 0
2726 -310 2011 -2134 0
2726 -310 -2011 2134 0
2726 -310 1265 -2247 0
2726 -310 -1265 2247 0
2726 -310 2116 -3084 0
2726 -310 -2116 3084 0
2726 -310 2120 -2484 0
2726 -310 -2120 2484 0
2726 310 1832 0
2726 310 996 0
2726 310 -2849 0
2726 310 -1312 0
2726 310 2011 -996 0
2726 310 -2011 996 0
2726 310 1265 -1312 0
2726 310 -1265 1312 0
2726 310 2116 -1832 0
2726 310 -2116 1832 0
2726 310 2120 -2849 0
2726 310 -2120 2849 0
2726 1734 0
2726 2710 -2011 0
2726 -2710 2011 0
2726 1000 -1265 0
2726 -1000 1265 0
2726 2912 -2116 0
2726 -2912 2116 0
2726 59 -2120 0
2726 -59 2120 0
-1487 -144 -2846 0
-1487 -144 -1903 0
-1487 -144 -2293 0
-1487 -144 -1019 0
-1487 -144 2828 -1903 0
-1487 -144 -2828 1903 0
-1487 -144 850 -1019 0
-1487 -144 -850 1019 0
-1487 -144 492 -2846 0
-1487 -144 -492 2846 0
-1487 -144 2826 -2293 0
-1487 -144 -2826 2293 0
-1487 144 2910 0
-1487 144 546 0
-1487 144 811 0
-1487 144 1154 0
-1487 144 2828 -546 0
-1487 144 -2828 546 0
-1487 144 850 -1154 0
-1487 144 -850 1154 0
-1487 144 492 -2910 0
-1487 144 -492 2910 0
-1487 144 2826 -811 0
-1487 144 -2826 811 0
-1487 2470 0
-1487 1380 -2828 0
-1487 -1380 2828 0
-1487 903 -850 0
-1487 -903 850 0
-1487 2198 -492 0
-1487 -2198 492 0
-1487 380 -2826 0
-1487 -380 2826 0
1487 -1356 -1095 0
1487 -1356 -1090 0
1487 -1356 198 0
1487 -1356 3170 0
1487 -1356 1656 -1090 0
1487 -1356 -1656 1090 0
1487 -1356 745 -3170 0
1487 -1356 -745 3170 0
1487 -1356 710 -1095 0
1487 -1356 -710 1095 0
1487 -1356 621 -198 0
1487 -1356 -621 198 0
1487 1356 1933 0
1487 1356 1600 0
1487 1356 -3039 0
1487 1356 -2863 0
1487 1356 1656 -1600 0
1487 1356 -1656 1600 0
1487 1356 745 -2863 0
1487 1356 -745 2863 0
1487 1356 710 -1933 0
1487 1356 -710 1933 0
1487 1356 621 -3039 0
1487 1356 -621 3039 0
1487 287 0
1487 1380 -1656 0
1487 -1380 1656 0
1487 903 -745 0
1487 -903 745 0
1487 2198 -710 0
1487 -2198 710 0
1487 380 -621 0
1487 -380 621 0
-2939 -619 -471 0
-2939 -619 -2791 0
-2939 -619 -899 0
-2939 -619 -2278 0
-2939 -619 1470 -2791 0
-2939 -619 -1470 2791 0
-2939 -619 2604 -2278 0
-2939 -619 -2604 2278 0
-2939 -619 521 -471 0
-2939 -619 -521 471 0
-2939 -619 2937 -899 0
-2939 -619 -2937 899 0
-2939 619 2108 0
-2939 619 889 0
-2939 619 2866 0
-2939 619 2827 0
-2939 619 1470 -889 0
-2939 619 -1470 889 0
-2939 619 2604 -2827 0
-2939 619 -2604 2827 0
-2939 619 521 -2108 0
-2939 619 -521 2108 0
-2939 619 2937 -2866 0
-2939 619 -2937 2866 0
-2939 2500 0
-2939 77 -1470 0
-2939 -77 1470 0
-2939 591 -2604 0
-2939 -591 2604 0
-2939 1380 -521 0
-2939 -1380 521 0
-2939 2803 -2937 0
-2939 -2803 2937 0
2939 -431 -1080 0
2939 -431 -1683 0
2939 -431 2385 0
2939 -431 2601 0
2939 -431 1669 -1683 0
2939 -431 -1669 1683 0
2939 -431 478 -2601 0
2939 -431 -478 2601 0
2939 -431 1608 -1080 0
2939 -431 -1608 1080 0
2939 -431 209 -2385 0
2939 -431 -209 2385 0
2939 431 3007 0
2939 431 2122 0
2939 431 -1512 0
2939 431 -3135 0
2939 431 1669 -2122 0
2939 431 -1669 2122 0
2939 431 478 -3135 0
2939 431 -478 3135 0
2939 431 1608 -3007 0
2939 431 -1608 3007 0
2939 431 209 -1512 0
2939 431 -209 1512 0
2939 893 0
2939 77 -1669 0
2939 -77 1669 0
2939 591 -478 0
2939 -591 478 0
2939 1380 -1608 0
2939 -1380 1608 0
2939 2803 -209 0
2939 -2803 209 0
-597 -2674 -849 0
-597 -2674 -140 0
-597 -2674 -2058 0
-597 -2674 -2135 0
-597 -2674 1905 -140 0
-597 -2674 -1905 140 0
-597 -2674 2986 -2135 0
-597 -2674 -2986 2135 0
-597 -2674 2704 -849 0
-597 -2674 -2704 849 0
-597 -2674 3052 -2058 0
-597 -2674 -3052 2058 0
-597 2674 2893 0
-597 2674 1137 0
-597 2674 2430 0
-597 2674 1784 0
-597 2674 1905 -1137 0
-597 2674 -1905 1137 0
-597 2674 2986 -1784 0
-597 2674 -2986 1784 0
-597 2674 2704 -2893 0
-597 2674 -2704 2893 0
-597 2674 3052 -2430 0
-597 2674 -3052 2430 0
-597 1884 0
-597 845 -1905 0
-597 -845 1905 0
-597 2269 -2986 0
-597 -2269 2986 0
-597 2935 -2704 0
-597 -2935 2704 0
-597 3108 -3052 0
-597 -3108 3052 0
597 -2829 -2002 0
597 -2829 -1804 0
597 -2829 962 0
597 -2829 1820 0
597 -2829 902 -1804 0
597 -2829 -902 1804 0
597 -2829 630 -1820 0
597 -2829 -630 1820 0
597 -2829 2832 -2002 0
597 -2829 -2832 2002 0
597 -2829 2629 -962 0
597 -2829 -2629 962 0
597 2829 177 0
597 2829 944 0
597 2829 -1562 0
597 2829 -2164 0
597 2829 902 -944 0
597 2829 -902 944 0
597 2829 630 -2164 0
597 2829 -630 2164 0
597 2829 2832 -177 0
597 2829 -2832 177 0
597 2829 2629 -1562 0
597 2829 -2629 1562 0
597 2631 0
597 845 -902 0
597 -845 902 0
597 2269 -630 0
597 -2269 630 0
597 2935 -2832 0
597 -2935 2832 0
597 3108 -2629 0
597 -3108 2629 0
-2126 -2744 -3138 0
-2126 -2744 -566 0
-2126 -2744 -2183 0
-2126 -2744 -2010 0
-2126 -2744 1220 -566 0
-2126 -2744 -1220 566 0
-2126 -2744 2974 -2010 0
-2126 -2744 -2974 2010 0
-2126 -2744 353 -3138 0
-2126 -2744 -353 3138 0
-2126 -2744 1686 -2183 0
-2126 -2744 -1686 2183 0
-2126 2744 576 0
-2126 2744 696 0
-2126 2744 3120 0
-2126 2744 1230 0
-2126 2744 1220 -696 0
-2126 2744 -1220 696 0
-2126 2744 2974 -1230 0
-2126 2744 -2974 1230 0
-2126 2744 353 -576 0
-2126 2744 -353 576 0
-2126 2744 1686 -3120 0
-2126 2744 -1686 3120 0
-2126 2979 0
-2126 2312 -1220 0
-2126 -2312 1220 0
-2126 1951 -2974 0
-2126 -1951 2974 0
-2126 845 -353 0
-2126 -845 353 0
-2126 738 -1686 0
-2126 -738 1686 0
2126 -2422 -3174 0
2126 -2422 -2856 0
2126 -2422 1262 0
2126 -2422 277 0
2126 -2422 1882 -2856 0
2126 -2422 -1882 2856 0
2126 -2422 2579 -277 0
2126 -2422 -2579 277 0
2126 -2422 1629 -3174 0
2126 -2422 -1629 3174 0
2126 -2422 3160 -1262 0
2126 -2422 -3160 1262 0
2126 2422 2467 0
2126 2422 2615 0
2126 2422 -2711 0
2126 2422 -2175 0
2126 2422 1882 -2615 0
2126 2422 -1882 2615 0
2126 2422 2579 -2175 0
2126 2422 -2579 2175 0
2126 2422 1629 -2467 0
2126 2422 -1629 2467 0
2126 2422 3160 -2711 0
2126 2422 -3160 2711 0
2126 560 0
2126 2312 -1882 0
2126 -2312 1882 0
2126 1951 -2579 0
2126 -1951 2579 0
2126 845 -1629 0
2126 -845 1629 0
2126 738 -3160 0
2126 -738 3160 0
-1974 -274 -2143 0
-1974 -274 -407 0
-1974 -274 -480 0
-1974 -274 -1068 0
-1974 -274 1824 -407 0
-1974 -274 -1824 407 0
-1974 -274 1844 -1068 0
-1974 -274 -1844 1068 0
-1974 -274 98 -2143 0
-1974 -274 -98 2143 0
-1974 -274 1777 -480 0
-1974 -274 -1777 480 0
-1974 274 180 0
-1974 274 2531 0
-1974 274 1625 0
-1974 274 1458 0
-1974 274 1824 -2531 0
-1974 274 -1824 2531 0
-1974 274 1844 -1458 0
-1974 274 -1844 1458 0
-1974 274 98 -180 0
-1974 274 -98 180 0
-1974 274 1777 -1625 0
-1974 274 -1777 1625 0
-1974 2019 0
-1974 1636 -1824 0
-1974 -1636 1824 0
-1974 2383 -1844 0
-1974 -2383 1844 0
-1974 1124 -98 0
-1974 -1124 98 0
-1974 57 -1777 0
-1974 -57 1777 0
1974 -774 -2523 0
1974 -774 -731 0
1974 -774 348 0
1974 -774 2929 0
1974 -774 1950 -731 0
1974 -774 -1950 731 0
1974 -774 800 -2929 0
1974 -774 -800 2929 0
1974 -774 2398 -2523 0
1974 -774 -2398 2523 0
1974 -774 2636 -348 0
1974 -774 -2636 348 0
1974 774 1493 0
1974 774 3176 0
1974 774 -1188 0
1974 774 -2536 0
1974 774 1950 -3176 0
1974 774 -1950 3176 0
1974 774 800 -2536 0
1974 774 -800 2536 0
1974 774 2398 -1493 0
1974 774 -2398 1493 0
1974 774 2636 -1188 0
1974 774 -2636 1188 0
1974 2192 0
1974 1636 -1950 0
1974 -1636 1950 0
1974 2383 -800 0
1974 -2383 800 0
1974 1124 -2398 0
1974 -1124 2398 0
1974 57 -2636 0
1974 -57 2636 0
-2448 -1218 -91 0
-2448 -1218 -192 0
-2448 -1218 -90 0
-2448 -1218 -981 0
-2448 -1218 2237 -192 0
-2448 -1218 -2237 192 0
-2448 -1218 2565 -981 0
-2448 -1218 -2565 981 0
-2448 -1218 118 -91 0
-2448 -1218 -118 91 0
-2448 -1218 2475 -90 0
-2448 -1218 -2475 90 0
-2448 1218 919 0
-2448 1218 1415 0
-2448 1218 2503 0
-2448 1218 645 0
-2448 1218 2237 -1415 0
-2448 1218 -2237 1415 0
-2448 1218 2565 -645 0
-2448 1218 -2565 645 0
-2448 1218 118 -919 0
-2448 1218 -118 919 0
-2448 1218 2475 -2503 0
-2448 1218 -2475 2503 0
-2448 822 0
-2448 3190 -2237 0
-2448 -3190 2237 0
-2448 300 -2565 0
-2448 -300 2565 0
-2448 1636 -118 0
-2448 -1636 118 0
-2448 1786 -2475 0
-2448 -1786 2475 0
2448 -2573 -2407 0
2448 -2573 -125 0
2448 -2573 3005 0
2448 -2573 1318 0
2448 -2573 2174 -125 0
2448 -2573 -2174 125 0
2448 -2573 146 -1318 0
2448 -2573 -146 1318 0
2448 -2573 1096 -2407 0
2448 -2573 -1096 2407 0
2448 -2573 260 -3005 0
2448 -2573 -260 3005 0
2448 2573 1576 0
2448 2573 2904 0
2448 2573 -1919 0
2448 2573 -2186 0
2448 2573 2174 -2904 0
2448 2573 -2174 2904 0
2448 2573 146 -2186 0
2448 2573 -146 2186 0
2448 2573 1096 -1576 0
2448 2573 -1096 1576 0
2448 2573 260 -1919 0
2448 2573 -260 1919 0
2448 1826 0
2448 3190 -2174 0
2448 -3190 2174 0
2448 300 -146 0
2448 -300 146 0
2448 1636 -1096 0
2448 -1636 1096 0
2448 1786 -260 0
2448 -1786 260 0
-1856 -3062 -1335 0
-1856 -3062 -569 0
-1856 -3062 -894 0
-1856 -3062 -687 0
-1856 -3062 1590 -569 0
-1856 -3062 -1590 569 0
-1856 -3062 2772 -687 0
-1856 -3062 -2772 687 0
-1856 -3062 311 -1335 0
-1856 -3062 -311 1335 0
-1856 -3062 2227 -894 0
-1856 -3062 -2227 894 0
-1856 3062 729 0
-1856 3062 2259 0
-1856 3062 1429 0
-1856 3062 1058 0
-1856 3062 1590 -2259 0
-1856 3062 -1590 2259 0
-1856 3062 2772 -1058 0
-1856 3062 -2772 1058 0
-1856 3062 311 -729 0
-1856 3062 -311 729 0
-1856 3062 2227 -1429 0
-1856 3062 -2227 1429 0
-1856 2027 0
-1856 85 -1590 0
-1856 -85 1590 0
-1856 2889 -2772 0
-1856 -2889 2772 0
-1856 1008 -311 0
-1856 -1008 311 0
-1856 920 -2227 0
-1856 -920 2227 0
1856 -2162 -275 0
1856 -2162 -2698 0
1856 -2162 1688 0
1856 -2162 2952 0
1856 -2162 3006 -2698 0
1856 -2162 -3006 2698 0
1856 -2162 1486 -2952 0
1856 -2162 -1486 2952 0
1856 -2162 1985 -275 0
1856 -2162 -1985 275 0
1856 -2162 326 -1688 0
1856 -2162 -326 1688 0
1856 2162 1485 0
1856 2162 693 0
1856 2162 -1240 0
1856 2162 -2836 0
1856 2162 3006 -693 0
1856 2162 -3006 693 0
1856 2162 1486 -2836 0
1856 2162 -1486 2836 0
1856 2162 1985 -1485 0
1856 2162 -1985 1485 0
1856 2162 326 -1240 0
1856 2162 -326 1240 0
1856 721 0
1856 85 -3006 0
1856 -85 3006 0
1856 2889 -1486 0
1856 -2889 1486 0
1856 1008 -1985 0
1856 -1008 1985 0
1856 920 -326 0
1856 -920 326 0
-3029 -2000 -2176 0
-3029 -2000 -2043 0
-3029 -2000 -1572 0
-3029 -2000 -351 0
-3029 -2000 1850 -2043 0
-3029 -2000 -1850 2043 0
-3029 -2000 1518 -351 0
-3029 -2000 -1518 351 0
-3029 -2000 1131 -2176 0
-3029 -2000 -1131 2176 0
-3029 -2000 2048 -1572 0
-3029 -2000 -2048 1572 0
-3029 2000 2542 0
-3029 2000 1778 0
-3029 2000 1716 0
-3029 2000 1808 0
-3029 2000 1850 -1778 0
-3029 2000 -1850 1778 0
-3029 2000 1518 -1808 0
-3029 2000 -1518 1808 0
-3029 2000 1131 -2542 0
-3029 2000 -1131 2542 0
-3029 2000 2048 -1716 0
-3029 2000 -2048 1716 0
-3029 1855 0
-3029 2263 -1850 0
-3029 -2263 1850 0
-3029 332 -1518 0
-3029 -332 1518 0
-3029 85 -1131 0
-3029 -85 1131 0
-3029 1329 -2048 0
-3029 -1329 2048 0
3029 -1267 -2411 0
3029 -1267 -2100 0
3029 -1267 1977 0
3029 -1267 1611 0
3029 -1267 2538 -2100 0
3029 -1267 -2538 2100 0
3029 -1267 524 -1611 0
3029 -1267 -524 1611 0
3029 -1267 2947 -2411 0
3029 -1267 -2947 2411 0
3029 -1267 448 -1977 0
3029 -1267 -448 1977 0
3029 1267 2821 0
3029 1267 2376 0
3029 1267 -754 0
3029 1267 -2996 0
3029 1267 2538 -2376 0
3029 1267 -2538 2376 0
3029 1267 524 -2996 0
3029 1267 -524 2996 0
3029 1267 2947 -2821 0
3029 1267 -2947 2821 0
3029 1267 448 -754 0
3029 1267 -448 754 0
3029 1567 0
3029 2263 -2538 0
3029 -2263 2538 0
3029 332 -524 0
3029 -332 524 0
3029 85 -2947 0
3029 -85 2947 0
3029 1329 -448 0
3029 -1329 448 0
-33 -2229 -372 0
-33 -2229 -2578 0
-33 -2229 -1235 0
-33 -2229 -139 0
-33 -2229 2261 -2578 0
-33 -2229 -2261 2578 0
-33 -2229 119 -139 0
-33 -2229 -119 139 0
-33 -2229 1367 -372 0
-33 -2229 -1367 372 0
-33 -2229 1885 -1235 0
-33 -2229 -1885 1235 0
-33 2229 227 0
-33 2229 3128 0
-33 2229 969 0
-33 2229 1067 0
-33 2229 2261 -3128 0
-33 2229 -2261 3128 0
-33 2229 119 -1067 0
-33 2229 -119 1067 0
-33 2229 1367 -227 0
-33 2229 -1367 227 0
-33 2229 1885 -969 0
-33 2229 -1885 969 0
-33 375 0
-33 2410 -2261 0
-33 -2410 2261 0
-33 2592 -119 0
-33 -2592 119 0
-33 2263 -1367 0
-33 -2263 1367 0
-33 1306 -1885 0
-33 -1306 1885 0
33 -529 -2065 0
33 -529 -2068 0
33 -529 664 0
33 -529 741 0
33 -529 1333 -2068 0
33 -529 -1333 2068 0
33 -529 1144 -741 0
33 -529 -1144 741 0
33 -529 1595 -2065 0
33 -529 -1595 2065 0
33 -529 1140 -664 0
33 -529 -1140 664 0
33 529 1257 0
33 529 670 0
33 529 -1526 0
33 529 -1176 0
33 529 1333 -670 0
33 529 -1333 670 0
33 529 1144 -1176 0
33 529 -1144 1176 0
33 529 1595 -1257 0
33 529 -1595 1257 0
33 529 1140 -1526 0
33 529 -1140 1526 0
33 2805 0
33 2410 -1333 0
33 -2410 1333 0
33 2592 -1144 0
33 -2592 1144 0
33 2263 -1595 0
33 -2263 1595 0
33 1306 -1140 0
33 -1306 1140 0
-362 -159 -2570 0
-362 -159 -1553 0
-362 -159 -2740 0
-362 -159 -3113 0
-362 -159 2375 -1553 0
-362 -159 -2375 1553 0
-362 -159 2454 -3113 0
-362 -159 -2454 3113 0
-362 -159 1543 -2570 0
-362 -159 -1543 2570 0
-362 -159 178 -2740 0
-362 -159 -178 2740 0
-362 159 2650 0
-362 159 2360 0
-362 159 1906 0
-362 159 1496 0
-362 159 2375 -2360 0
-362 159 -2375 2360 0
-362 159 2454 -1496 0
-362 159 -2454 1496 0
-362 159 1543 -2650 0
-362 159 -1543 2650 0
-362 159 178 -1906 0
-362 159 -178 1906 0
-362 2394 0
-362 2998 -2375 0
-362 -2998 2375 0
-362 826 -2454 0
-362 -826 2454 0
-362 1579 -1543 0
-362 -1579 1543 0
-362 2501 -178 0
-362 -2501 178 0
362 -2350 -2890 0
362 -2350 -2992 0
362 -2350 982 0
362 -2350 2945 0
362 -2350 909 -2992 0
362 -2350 -909 2992 0
362 -2350 374 -2945 0
362 -2350 -374 2945 0
362 -2350 516 -2890 0
362 -2350 -516 2890 0
362 -2350 2732 -982 0
362 -2350 -2732 982 0
362 2350 574 0
362 2350 2030 0
362 2350 -1162 0
362 2350 -593 0
362 2350 909 -2030 0
362 2350 -909 2030 0
362 2350 374 -593 0
362 2350 -374 593 0
362 2350 516 -574 0
362 2350 -516 574 0
362 2350 2732 -1162 0
362 2350 -2732 1162 0
362 2776 0
362 2998 -909 0
362 -2998 909 0
362 826 -374 0
362 -826 374 0
362 1579 -516 0
362 -1579 516 0
362 2501 -2732 0
362 -2501 2732 0
-23 -3 -1592 0
-23 -3 -1432 0
-23 -3 -1557 0
-23 -3 -1912 0
-23 -3 530 -1432 0
-23 -3 -530 1432 0
-23 -3 567 -1912 0
-23 -3 -567 1912 0
-23 -3 3143 -1592 0
-23 -3 -3143 1592 0
-23 -3 1031 -1557 0
-23 -3 -1031 1557 0
-23 3 2028 0
-23 3 2736 0
-23 3 2916 0
-23 3 2901 0
-23 3 530 -2736 0
-23 3 -530 2736 0
-23 3 567 -2901 0
-23 3 -567 2901 0
-23 3 3143 -2028 0
-23 3 -3143 2028 0
-23 3 1031 -2916 0
-23 3 -1031 2916 0
-23 2920 0
-23 1410 -530 0
-23 -1410 530 0
-23 2035 -567 0
-23 -2035 567 0
-23 1390 -3143 0
-23 -1390 3143 0
-23 1951 -1031 0
-23 -1951 1031 0
23 -2168 -2047 0
23 -2168 -1334 0
23 -2168 2567 0
23 -2168 97 0
23 -2168 20 -1334 0
23 -2168 -20 1334 0
23 -2168 1575 -97 0
23 -2168 -1575 97 0
23 -2168 3125 -2047 0
23 -2168 -3125 2047 0
23 -2168 641 -2567 0
23 -2168 -641 2567 0
23 2168 1077 0
23 2168 1536 0
23 2168 -1678 0
23 2168 -42 0
23 2168 20 -1536 0
23 2168 -20 1536 0
23 2168 1575 -42 0
23 2168 -1575 42 0
23 2168 3125 -1077 0
23 2168 -3125 1077 0
23 2168 641 -1678 0
23 2168 -641 1678 0
23 337 0
23 1410 -20 0
23 -1410 20 0
23 2035 -1575 0
23 -2035 1575 0
23 1390 -3125 0
23 -1390 3125 0
23 1951 -641 0
23 -1951 641 0
-1401 -1983 -2392 0
-1401 -1983 -2404 0
-1401 -1983 -2734 0
-1401 -1983 -417 0
-1401 -1983 647 -2404 0
-1401 -1983 -647 2404 0
-1401 -1983 519 -417 0
-1401 -1983 -519 417 0
-1401 -1983 1846 -2392 0
-1401 -1983 -1846 2392 0
-1401 -1983 2260 -2734 0
-1401 -1983 -2260 2734 0
-1401 1983 1237 0
-1401 1983 1938 0
-1401 1983 2774 0
-1401 1983 475 0
-1401 1983 647 -1938 0
-1401 1983 -647 1938 0
-1401 1983 519 -475 0
-1401 1983 -519 475 0
-1401 1983 1846 -1237 0
-1401 1983 -1846 1237 0
-1401 1983 2260 -2774 0
-1401 1983 -2260 2774 0
-1401 243 0
-1401 2668 -647 0
-1401 -2668 647 0
-1401 1899 -519 0
-1401 -1899 519 0
-1401 426 -1846 0
-1401 -426 1846 0
-1401 2035 -2260 0
-1401 -2035 2260 0
1401 -1444 -2770 0
1401 -1444 -818 0
1401 -1444 1299 0
1401 -1444 2635 0
1401 -1444 862 -818 0
1401 -1444 -862 818 0
1401 -1444 141 -2635 0
1401 -1444 -141 2635 0
1401 -1444 2166 -2770 0
1401 -1444 -2166 2770 0
1401 -1444 313 -1299 0
1401 -1444 -313 1299 0
1401 1444 1712 0
1401 1444 213 0
1401 1444 -2054 0
1401 1444 -634 0
1401 1444 862 -213 0
1401 1444 -862 213 0
1401 1444 141 -634 0
1401 1444 -141 634 0
1401 1444 2166 -1712 0
1401 1444 -2166 1712 0
1401 1444 313 -2054 0
1401 1444 -313 2054 0
1401 2760 0
1401 2668 -862 0
1401 -2668 862 0
1401 1899 -141 0
1401 -1899 141 0
1401 426 -2166 0
1401 -426 2166 0
1401 2035 -313 0
1401 -2035 313 0
-3035 -1886 -134 0
-3035 -1886 -1779 0
-3035 -1886 -2511 0
-3035 -1886 -457 0
-3035 -1886 1005 -1779 0
-3035 -1886 -1005 1779 0
-3035 -1886 2779 -457 0
-3035 -1886 -2779 457 0
-3035 -1886 716 -134 0
-3035 -1886 -716 134 0
-3035 -1886 2576 -2511 0
-3035 -1886 -2576 2511 0
-3035 1886 2596 0
-3035 1886 463 0
-3035 1886 494 0
-3035 1886 2098 0
-3035 1886 1005 -463 0
-3035 1886 -1005 463 0
-3035 1886 2779 -2098 0
-3035 1886 -2779 2098 0
-3035 1886 716 -2596 0
-3035 1886 -716 2596 0
-3035 1886 2576 -494 0
-3035 1886 -2576 494 0
-3035 1932 0
-3035 2378 -1005 0
-3035 -2378 1005 0
-3035 885 -2779 0
-3035 -885 2779 0
-3035 1691 -716 0
-3035 -1691 716 0
-3035 300 -2576 0
-3035 -300 2576 0
3035 -1195 -3063 0
3035 -1195 -2301 0
3035 -1195 1980 0
3035 -1195 3008 0
3035 -1195 2873 -2301 0
3035 -1195 -2873 2301 0
3035 -1195 1117 -3008 0
3035 -1195 -1117 3008 0
3035 -1195 321 -3063 0
3035 -1195 -321 3063 0
3035 -1195 218 -1980 0
3035 -1195 -218 1980 0
3035 1195 436 0
3035 1195 1585 0
3035 1195 -2558 0
3035 1195 -187 0
3035 1195 2873 -1585 0
3035 1195 -2873 1585 0
3035 1195 1117 -187 0
3035 1195 -1117 187 0
3035 1195 321 -436 0
3035 1195 -321 436 0
3035 1195 218 -2558 0
3035 1195 -218 2558 0
3035 2460 0
3035 2378 -2873 0
3035 -2378 2873 0
3035 885 -1117 0
3035 -885 1117 0
3035 1691 -321 0
3035 -1691 321 0
3035 300 -218 0
3035 -300 218 0
-322 -1101 -1601 0
-322 -1101 -175 0
-322 -1101 -2653 0
-322 -1101 -439 0
-322 -1101 2402 -175 0
-322 -1101 -2402 175 0
-322 -1101 1256 -439 0
-322 -1101 -1256 439 0
-322 -1101 1244 -1601 0
-322 -1101 -1244 1601 0
-322 -1101 2387 -2653 0
-322 -1101 -2387 2653 0
-322 1101 1337 0
-322 1101 230 0
-322 1101 2783 0
-322 1101 70 0
-322 1101 2402 -230 0
-322 1101 -2402 230 0
-322 1101 1256 -70 0
-322 1101 -1256 70 0
-322 1101 1244 -1337 0
-322 1101 -1244 1337 0
-322 1101 2387 -2783 0
-322 1101 -2387 2783 0
-322 2434 0
-322 1953 -2402 0
-322 -1953 2402 0
-322 933 -1256 0
-322 -933 1256 0
-322 2378 -1244 0
-322 -2378 1244 0
-322 99 -2387 0
-322 -99 2387 0
322 -614 -1569 0
322 -614 -1501 0
322 -614 1081 0
322 -614 2185 0
322 -614 432 -1501 0
322 -614 -432 1501 0
322 -614 1280 -2185 0
322 -614 -1280 2185 0
322 -614 1659 -1569 0
322 -614 -1659 1569 0
322 -614 216 -1081 0
322 -614 -216 1081 0
322 614 1404 0
322 614 797 0
322 614 -1085 0
322 614 -349 0
322 614 432 -797 0
322 614 -432 797 0
322 614 1280 -349 0
322 614 -1280 349 0
322 614 1659 -1404 0
322 614 -1659 1404 0
322 614 216 -1085 0
322 614 -216 1085 0
322 1662 0
322 1953 -432 0
322 -1953 432 0
322 933 -1280 0
322 -933 1280 0
322 2378 -1659 0
322 -2378 1659 0
322 99 -216 0
322 -99 216 0
-767 -1541 -2541 0
-767 -1541 -1993 0
-767 -1541 -2243 0
-767 -1541 -1192 0
-767 -1541 2773 -1993 0
-767 -1541 -2773 1993 0
-767 -1541 2012 -1192 0
-767 -1541 -2012 1192 0
-767 -1541 365 -2541 0
-767 -1541 -365 2541 0
-767 -1541 2923 -2243 0
-767 -1541 -2923 2243 0
-767 1541 1368 0
-767 1541 2813 0
-767 1541 618 0
-767 1541 1248 0
-767 1541 2773 -2813 0
-767 1541 -2773 2813 0
-767 1541 2012 -1248 0
-767 1541 -2012 1248 0
-767 1541 365 -1368 0
-767 1541 -365 1368 0
-767 1541 2923 -618 0
-767 1541 -2923 618 0
-767 1673 0
-767 2040 -2773 0
-767 -2040 2773 0
-767 3001 -2012 0
-767 -3001 2012 0
-767 2383 -365 0
-767 -2383 365 0
-767 903 -2923 0
-767 -903 2923 0
767 -2612 -2630 0
767 -2612 -2817 0
767 -2612 2932 0
767 -2612 3010 0
767 -2612 1336 -2817 0
767 -2612 -1336 2817 0
767 -2612 2390 -3010 0
767 -2612 -2390 3010 0
767 -2612 319 -2630 0
767 -2612 -319 2630 0
767 -2612 1869 -2932 0
767 -2612 -1869 2932 0
767 2612 499 0
767 2612 156 0
767 2612 -2218 0
767 2612 -772 0
767 2612 1336 -156 0
767 2612 -1336 156 0
767 2612 2390 -772 0
767 2612 -2390 772 0
767 2612 319 -499 0
767 2612 -319 499 0
767 2612 1869 -2218 0
767 2612 -1869 2218 0
767 2125 0
767 2040 -1336 0
767 -2040 1336 0
767 3001 -2390 0
767 -3001 2390 0
767 2383 -319 0
767 -2383 319 0
767 903 -1869 0
767 -903 1869 0
-1891 -2595 -2096 0
-1891 -2595 -810 0
-1891 -2595 -1900 0
-1891 -2595 -1999 0
-1891 -2595 1803 -810 0
-1891 -2595 -1803 810 0
-1891 -2595 1701 -1999 0
-1891 -2595 -1701 1999 0
-1891 -2595 1442 -2096 0
-1891 -2595 -1442 2096 0
-1891 -2595 1289 -1900 0
-1891 -2595 -1289 1900 0
-1891 2595 1756 0
-1891 2595 1393 0
-1891 2595 1545 0
-1891 2595 585 0
-1891 2595 1803 -1393 0
-1891 2595 -1803 1393 0
-1891 2595 1701 -585 0
-1891 2595 -1701 585 0
-1891 2595 1442 -1756 0
-1891 2595 -1442 1756 0
-1891 2595 1289 -1545 0
-1891 2595 -1289 1545 0
-1891 2131 0
-1891 288 -1803 0
-1891 -288 1803 0
-1891 479 -1701 0
-1891 -479 1701 0
-1891 3001 -1442 0
-1891 -3001 1442 0
-1891 2146 -1289 0
-1891 -2146 1289 0
1891 -1807 -87 0
1891 -1807 -239 0
1891 -1807 2160 0
1891 -1807 451 0
1891 -1807 1522 -239 0
1891 -1807 -1522 239 0
1891 -1807 2321 -451 0
1891 -1807 -2321 451 0
1891 -1807 824 -87 0
1891 -1807 -824 87 0
1891 -1807 1025 -2160 0
1891 -1807 -1025 2160 0
1891 1807 316 0
1891 1807 2707 0
1891 1807 -1889 0
1891 1807 -110 0
1891 1807 1522 -2707 0
1891 1807 -1522 2707 0
1891 1807 2321 -110 0
1891 1807 -2321 110 0
1891 1807 824 -316 0
1891 1807 -824 316 0
1891 1807 1025 -1889 0
1891 1807 -1025 1889 0
1891 1083 0
1891 288 -1522 0
1891 -288 1522 0
1891 479 -2321 0
1891 -479 2321 0
1891 3001 -824 0
1891 -3001 824 0
1891 2146 -1025 0
1891 -2146 1025 0
-495 -2271 -1877 0
-495 -2271 -1399 0
-495 -2271 -3004 0
-495 -2271 -2902 0
-495 -2271 1962 -1399 0
-495 -2271 -1962 1399 0
-495 -2271 403 -2902 0
-495 -2271 -403 2902 0
-495 -2271 2211 -1877 0
-495 -2271 -2211 1877 0
-495 -2271 691 -3004 0
-495 -2271 -691 3004 0
-495 2271 1428 0
-495 2271 1009 0
-495 2271 381 0
-495 2271 3151 0
-495 2271 1962 -1009 0
-495 2271 -1962 1009 0
-495 2271 403 -3151 0
-495 2271 -403 3151 0
-495 2271 2211 -1428 0
-495 2271 -2211 1428 0
-495 2271 691 -381 0
-495 2271 -691 381 0
-495 2973 0
-495 1802 -1962 0
-495 -1802 1962 0
-495 2716 -403 0
-495 -2716 403 0
-495 2889 -2211 0
-495 -2889 2211 0
-495 2117 -691 0
-495 -2117 691 0
495 -189 -1022 0
495 -189 -758 0
495 -189 637 0
495 -189 155 0
495 -189 2327 -758 0
495 -189 -2327 758 0
495 -189 2358 -155 0
495 -189 -2358 155 0
495 -189 2369 -1022 0
495 -189 -2369 1022 0
495 -189 965 -637 0
495 -189 -965 637 0
495 189 655 0
495 189 2345 0
495 189 -3104 0
495 189 -901 0
495 189 2327 -2345 0
495 189 -2327 2345 0
495 189 2358 -901 0
495 189 -2358 901 0
495 189 2369 -655 0
495 189 -2369 655 0
495 189 965 -3104 0
495 189 -965 3104 0
495 598 0
495 1802 -2327 0
495 -1802 2327 0
495 2716 -2358 0
495 -2716 2358 0
495 2889 -2369 0
495 -2889 2369 0
495 2117 -965 0
495 -2117 965 0
-17 -1400 -2086 0
-17 -1400 -1955 0
-17 -1400 -1530 0
-17 -1400 -2787 0
-17 -1400 678 -1955 0
-17 -1400 -678 1955 0
-17 -1400 660 -2787 0
-17 -1400 -660 2787 0
-17 -1400 1035 -2086 0
-17 -1400 -1035 2086 0
-17 -1400 1764 -1530 0
-17 -1400 -1764 1530 0
-17 1400 1652 0
-17 1400 950 0
-17 1400 1936 0
-17 1400 446 0
-17 1400 678 -950 0
-17 1400 -678 950 0
-17 1400 660 -446 0
-17 1400 -660 446 0
-17 1400 1035 -1652 0
-17 1400 -1035 1652 0
-17 1400 1764 -1936 0
-17 1400 -1764 1936 0
-17 1042 0
-17 2794 -678 0
-17 -2794 678 0
-17 1271 -660 0
-17 -1271 660 0
-17 415 -1035 0
-17 -415 1035 0
-17 2141 -1764 0
-17 -2141 1764 0
17 -1050 -309 0
17 -1050 -1513 0
17 -1050 2891 0
17 -1050 2672 0
17 -1050 1796 -1513 0
17 -1050 -1796 1513 0
17 -1050 1247 -2672 0
17 -1050 -1247 2672 0
17 -1050 2354 -309 0
17 -1050 -2354 309 0
17 -1050 2554 -2891 0
17 -1050 -2554 2891 0
17 1050 2296 0
17 1050 386 0
17 1050 -2777 0
17 1050 -1084 0
17 1050 1796 -386 0
17 1050 -1796 386 0
17 1050 1247 -1084 0
17 1050 -1247 1084 0
17 1050 2354 -2296 0
17 1050 -2354 2296 0
17 1050 2554 -2777 0
17 1050 -2554 2777 0
17 991 0
17 2794 -1796 0
17 -2794 1796 0
17 1271 -1247 0
17 -1271 1247 0
17 415 -2354 0
17 -415 2354 0
17 2141 -2554 0
17 -2141 2554 0
-335 -2617 -3130 0
-335 -2617 -1129 0
-335 -2617 -2133 0
-335 -2617 -1351 0
-335 -2617 1759 -1129 0
-335 -2617 -1759 1129 0
-335 -2617 924 -1351 0
-335 -2617 -924 1351 0
-335 -2617 1126 -3130 0
-335 -2617 -1126 3130 0
-335 -2617 3132 -2133 0
-335 -2617 -3132 2133 0
-335 2617 1765 0
-335 2617 817 0
-335 2617 2267 0
-335 2617 2594 0
-335 2617 1759 -817 0
-335 2617 -1759 817 0
-335 2617 924 -2594 0
-335 2617 -924 2594 0
-335 2617 1126 -1765 0
-335 2617 -1126 1765 0
-335 2617 3132 -2267 0
-335 2617 -3132 2267 0
-335 2280 0
-335 832 -1759 0
-335 -832 1759 0
-335 651 -924 0
-335 -651 924 0
-335 332 -1126 0
-335 -332 1126 0
-335 283 -3132 0
-335 -283 3132 0
335 -1925 -1216 0
335 -1925 -2868 0
335 -1925 1062 0
335 -1925 1746 0
335 -1925 174 -2868 0
335 -1925 -174 2868 0
335 -1925 279 -1746 0
335 -1925 -279 1746 0
335 -1925 2533 -1216 0
335 -1925 -2533 1216 0
335 -1925 2860 -1062 0
335 -1925 -2860 1062 0
335 1925 859 0
335 1925 750 0
335 1925 -371 0
335 1925 -1852 0
335 1925 174 -750 0
335 1925 -174 750 0
335 1925 279 -1852 0
335 1925 -279 1852 0
335 1925 2533 -859 0
335 1925 -2533 859 0
335 1925 2860 -371 0
335 1925 -2860 371 0
335 1344 0
335 832 -174 0
335 -832 174 0
335 651 -279 0
335 -651 279 0
335 332 -2533 0
335 -332 2533 0
335 283 -2860 0
335 -283 2860 0
-977 -265 -1834 0
-977 -265 -1914 0
-977 -265 -3112 0
-977 -265 -1523 0
-977 -265 1205 -1914 0
-977 -265 -1205 1914 0
-977 -265 297 -1523 0
-977 -265 -297 1523 0
-977 -265 975 -1834 0
-977 -265 -975 1834 0
-977 -265 2964 -3112 0
-977 -265 -2964 3112 0
-977 265 424 0
-977 265 1201 0
-977 265 1791 0
-977 265 2995 0
-977 265 1205 -1201 0
-977 265 -1205 1201 0
-977 265 297 -2995 0
-977 265 -297 2995 0
-977 265 975 -424 0
-977 265 -975 424 0
-977 265 2964 -1791 0
-977 265 -2964 1791 0
-977 74 0
-977 1278 -1205 0
-977 -1278 1205 0
-977 778 -297 0
-977 -778 297 0
-977 479 -975 0
-977 -479 975 0
-977 651 -2964 0
-977 -651 2964 0
977 -261 -154 0
977 -261 -2978 0
977 -261 2474 0
977 -261 1967 0
977 -261 688 -2978 0
977 -261 -688 2978 0
977 -261 554 -1967 0
977 -261 -554 1967 0
977 -261 840 -154 0
977 -261 -840 154 0
977 -261 1857 -2474 0
977 -261 -1857 2474 0
977 261 12 0
977 261 2182 0
977 261 -2455 0
977 261 -503 0
977 261 688 -2182 0
977 261 -688 2182 0
977 261 554 -503 0
977 261 -554 503 0
977 261 840 -12 0
977 261 -840 12 0
977 261 1857 -2455 0
977 261 -1857 2455 0
977 1348 0
977 1278 -688 0
977 -1278 688 0
977 778 -554 0
977 -778 554 0
977 479 -840 0
977 -479 840 0
977 651 -1857 0
977 -651 1857 0
-487 -793 -1883 0
-487 -793 -476 0
-487 -793 -46 0
-487 -793 -1505 0
-487 -793 1729 -476 0
-487 -793 -1729 476 0
-487 -793 2034 -1505 0
-487 -793 -2034 1505 0
-487 -793 1753 -1883 0
-487 -793 -1753 1883 0
-487 -793 30 -46 0
-487 -793 -30 46 0
-487 793 2593 0
-487 793 2748 0
-487 793 698 0
-487 793 2632 0
-487 793 1729 -2748 0
-487 793 -1729 2748 0
-487 793 2034 -2632 0
-487 793 -2034 2632 0
-487 793 1753 -2593 0
-487 793 -1753 2593 0
-487 793 30 -698 0
-487 793 -30 698 0
-487 914 0
-487 2105 -1729 0
-487 -2105 1729 0
-487 51 -2034 0
-487 -51 2034 0
-487 826 -1753 0
-487 -826 1753 0
-487 591 -30 0
-487 -591 30 0
487 -2298 -2391 0
487 -2298 -345 0
487 -2298 1173 0
487 -2298 2078 0
487 -2298 1670 -345 0
487 -2298 -1670 345 0
487 -2298 2966 -2078 0
487 -2298 -2966 2078 0
487 -2298 2005 -2391 0
487 -2298 -2005 2391 0
487 -2298 984 -1173 0
487 -2298 -984 1173 0
487 2298 2370 0
487 2298 557 0
487 2298 -2941 0
487 2298 -1295 0
487 2298 1670 -557 0
487 2298 -1670 557 0
487 2298 2966 -1295 0
487 2298 -2966 1295 0
487 2298 2005 -2370 0
487 2298 -2005 2370 0
487 2298 984 -2941 0
487 2298 -984 2941 0
487 1303 0
487 2105 -1670 0
487 -2105 1670 0
487 51 -2966 0
487 -51 2966 0
487 826 -2005 0
487 -826 2005 0
487 591 -984 0
487 -591 984 0
-257 -1211 -443 0
-257 -1211 -1627 0
-257 -1211 -685 0
-257 -1211 -1384 0
-257 -1211 2991 -1627 0
-257 -1211 -2991 1627 0
-257 -1211 81 -1384 0
-257 -1211 -81 1384 0
-257 -1211 2824 -443 0
-257 -1211 -2824 443 0
-257 -1211 2403 -685 0
-257 -1211 -2403 685 0
-257 1211 1757 0
-257 1211 887 0
-257 1211 1738 0
-257 1211 665 0
-257 1211 2991 -887 0
-257 1211 -2991 887 0
-257 1211 81 -665 0
-257 1211 -81 665 0
-257 1211 2824 -1757 0
-257 1211 -2824 1757 0
-257 1211 2403 -1738 0
-257 1211 -2403 1738 0
-257 948 0
-257 2292 -2991 0
-257 -2292 2991 0
-257 1819 -81 0
-257 -1819 81 0
-257 2105 -2824 0
-257 -2105 2824 0
-257 778 -2403 0
-257 -778 2403 0
257 -869 -1637 0
257 -869 -1880 0
257 -869 719 0
257 -869 3140 0
257 -869 2188 -1880 0
257 -869 -2188 1880 0
257 -869 2223 -3140 0
257 -869 -2223 3140 0
257 -869 1598 -1637 0
257 -869 -1598 1637 0
257 -869 957 -719 0
257 -869 -957 719 0
257 869 3019 0
257 869 75 0
257 869 -3068 0
257 869 -1093 0
257 869 2188 -75 0
257 869 -2188 75 0
257 869 2223 -1093 0
257 869 -2223 1093 0
257 869 1598 -3019 0
257 869 -1598 3019 0
257 869 957 -3068 0
257 869 -957 3068 0
257 357 0
257 2292 -2188 0
257 -2292 2188 0
257 1819 -2223 0
257 -1819 2223 0
257 2105 -1598 0
257 -2105 1598 0
257 778 -957 0
257 -778 957 0
-3083 -1045 -1208 0
-3083 -1045 -53 0
-3083 -1045 -1073 0
-3083 -1045 -2907 0
-3083 -1045 2421 -53 0
-3083 -1045 -2421 53 0
-3083 -1045 383 -2907 0
-3083 -1045 -383 2907 0
-3083 -1045 929 -1208 0
-3083 -1045 -929 1208 0
-3083 -1045 2624 -1073 0
-3083 -1045 -2624 1073 0
-3083 1045 15 0
-3083 1045 3020 0
-3083 1045 565 0
-3083 1045 435 0
-3083 1045 2421 -3020 0
-3083 1045 -2421 3020 0
-3083 1045 383 -435 0
-3083 1045 -383 435 0
-3083 1045 929 -15 0
-3083 1045 -929 15 0
-3083 1045 2624 -565 0
-3083 1045 -2624 565 0
-3083 3159 0
-3083 961 -2421 0
-3083 -961 2421 0
-3083 1453 -383 0
-3083 -1453 383 0
-3083 2592 -929 0
-3083 -2592 929 0
-3083 1819 -2624 0
-3083 -1819 2624 0
3083 -1708 -2224 0
3083 -1708 -1649 0
3083 -1708 2119 0
3083 -1708 37 0
3083 -1708 1797 -1649 0
3083 -1708 -1797 1649 0
3083 -1708 1227 -37 0
3083 -1708 -1227 37 0
3083 -1708 3071 -2224 0
3083 -1708 -3071 2224 0
3083 -1708 1510 -2119 0
3083 -1708 -1510 2119 0
3083 1708 80 0
3083 1708 9 0
3083 1708 -409 0
3083 1708 -35 0
3083 1708 1797 -9 0
3083 1708 -1797 9 0
3083 1708 1227 -35 0
3083 1708 -1227 35 0
3083 1708 3071 -80 0
3083 1708 -3071 80 0
3083 1708 1510 -409 0
3083 1708 -1510 409 0
3083 765 0
3083 961 -1797 0
3083 -961 1797 0
3083 1453 -1227 0
3083 -1453 1227 0
3083 2592 -3071 0
3083 -2592 3071 0
3083 1819 -1510 0
3083 -1819 1510 0
-1741 -1056 -339 0
-1741 -1056 -1063 0
-1741 -1056 -2045 0
-1741 -1056 -333 0
-1741 -1056 1609 -1063 0
-1741 -1056 -1609 1063 0
-1741 -1056 1615 -333 0
-1741 -1056 -1615 333 0
-1741 -1056 809 -339 0
-1741 -1056 -809 339 0
-1741 -1056 254 -2045 0
-1741 -1056 -254 2045 0
-1741 1056 1266 0
-1741 1056 545 0
-1741 1056 2834 0
-1741 1056 2208 0
-1741 1056 1609 -545 0
-1741 1056 -1609 545 0
-1741 1056 1615 -2208 0
-1741 1056 -1615 2208 0
-1741 1056 809 -1266 0
-1741 1056 -809 1266 0
-1741 1056 254 -2834 0
-1741 1056 -254 2834 0
-1741 2257 0
-1741 2548 -1609 0
-1741 -2548 1609 0
-1741 2959 -1615 0
-1741 -2959 1615 0
-1741 1271 -809 0
-1741 -1271 809 0
-1741 1453 -254 0
-1741 -1453 254 0
1741 -2480 -2897 0
1741 -2480 -661 0
1741 -2480 2838 0
1741 -2480 1749 0
1741 -2480 2802 -661 0
1741 -2480 -2802 661 0
1741 -2480 65 -1749 0
1741 -2480 -65 1749 0
1741 -2480 2349 -2897 0
1741 -2480 -2349 2897 0
1741 -2480 331 -2838 0
1741 -2480 -331 2838 0
1741 2480 1821 0
1741 2480 2816 0
1741 2480 -2379 0
1741 2480 -130 0
1741 2480 2802 -2816 0
1741 2480 -2802 2816 0
1741 2480 65 -130 0
1741 2480 -65 130 0
1741 2480 2349 -1821 0
1741 2480 -2349 1821 0
1741 2480 331 -2379 0
1741 2480 -331 2379 0
1741 2364 0
1741 2548 -2802 0
1741 -2548 2802 0
1741 2959 -65 0
1741 -2959 65 0
1741 1271 -2349 0
1741 -1271 2349 0
1741 1453 -331 0
1741 -1453 331 0
865 -1665 0
-865 1665 0
2283 -3144 0
-2283 3144 0
2488 -848 0
-2488 848 0
3126 -289 0
-3126 289 0
2341 -2658 0
-2341 2658 0
2269 -1643 0
-2269 1643 0
2017 -3141 0
-2017 3141 0
2843 -699 0
-2843 699 0
2566 -320 0
-2566 320 0
1451 -3133 0
-1451 3133 0
2796 -2177 0
-2796 2177 0
2357 -1066 0
-2357 1066 0
1278 -1837 0
-1278 1837 0
51 -1413 0
-51 1413 0
2312 -2338 0
-2312 2338 0
288 -1724 0
-288 1724 0
885 -1476 0
-885 1476 0
2959 -2661 0
-2959 2661 0
3118 -559 0
-3118 559 0
1298 -2605 0
-1298 2605 0
2716 -762 0
-2716 762 0
55 -43 0
-55 43 0
918 -2307 0
-918 2307 0
1953 -1484 0
-1953 1484 0
2040 -267 0
-2040 267 0
2942 -404 0
-2942 404 0
102 -513 0
-102 513 0
77 -1260 0
-77 1260 0
2833 -1848 0
-2833 1848 0
121 -121 0
-121 121 0
2958 -940 0
-2958 940 0
961 -1799 0
-961 1799 0
2548 -472 0
-2548 472 0
484 -429 0
-484 429 0
2998 -2471 0
-2998 2471 0
1410 -1323 0
-1410 1323 0
2989 -433 0
-2989 433 0
1785 -1183 0
-1785 1183 0
1000 -1650 0
-1000 1650 0
1991 -2645 0
-1991 2645 0
3190 -2855 0
-3190 2855 0
1802 -1684 0
-1802 1684 0
2352 -234 0
-2352 234 0
992 -747 0
-992 747 0
450 -3171 0
-450 3171 0
2410 -1008 0
-2410 1008 0
2292 -3014 0
-2292 3014 0
512 -531 0
-512 531 0
771 -1044 0
-771 1044 0
2710 -244 0
-2710 244 0
1378 -753 0
-1378 753 0
3088 -775 0
-3088 775 0
933 -1508 0
-933 1508 0
2794 -1385 0
-2794 1385 0
832 -1714 0
-832 1714 0
1020 -724 0
-1020 724 0
988 -534 0
-988 534 0
1899 -1723 0
-1899 1723 0
2668 -426 0
-2668 426 0
963 -2898 0
-963 2898 0
