p cnf 50 100
w 1 0.5
w 2 0.5
w 3 0.5
w 4 0.5
w 5 0.5
w 6 0.5
w 7 0.5
w 8 0.5
w 9 0.5
w 10 0.5
w 11 0.5
w 12 0.5
w 13 0.5
w 14 0.5
w 15 0.5
w 16 0.5
w 17 0.5
w 18 0.5
w 19 0.5
w 20 0.5
w 21 0.5
w 22 0.5
w 23 0.5
w 24 0.5
w 25 0.5
w 26 0.6456563062257955
w 27 0.5
w 28 0.5
w 29 0.4501660026875221
w 30 0.5
w 31 0.5
w 32 0.5
w 33 0.5
w 34 0.5
w 35 0.598687660112452
w 36 0.5
w 37 0.5
w 38 0.5
w 39 0.5
w 40 0.5
w 41 0.5
w 42 0.5
w 43 0.5
w 44 0.5
w 45 0.5
w 46 0.5
w 47 0.5
w 48 0.5
w 49 0.5
w 50 0.5
-35 -48 0
-35 -42 0
-35 27 0
-35 4 -42 0
-35 -4 42 0
-35 22 -48 0
-35 -22 48 0
35 19 0
35 31 0
35 33 0
35 4 -31 0
35 -4 31 0
35 22 -19 0
35 -22 19 0
-29 -50 0
-29 -15 0
-29 28 0
-29 39 -15 0
-29 -39 15 0
-29 34 -50 0
-29 -34 50 0
29 21 0
29 41 0
29 40 0
29 39 -41 0
29 -39 41 0
29 34 -21 0
29 -34 21 0
-26 -13 -36 0
-26 -13 -8 0
-26 -13 -9 0
-26 -13 -3 0
-26 -13 25 -8 0
-26 -13 -25 8 0
-26 -13 7 -3 0
-26 -13 -7 3 0
-26 -13 16 -36 0
-26 -13 -16 36 0
-26 -13 44 -9 0
-26 -13 -44 9 0
-26 13 11 0
-26 13 47 0
-26 13 30 0
-26 13 24 0
-26 13 25 -47 0
-26 13 -25 47 0
-26 13 7 -24 0
-26 13 -7 24 0
-26 13 16 -11 0
-26 13 -16 11 0
-26 13 44 -30 0
-26 13 -44 30 0
-26 32 0
-26 37 -25 0
-26 -37 25 0
-26 14 -7 0
-26 -14 7 0
-26 46 -16 0
-26 -46 16 0
-26 39 -44 0
-26 -39 44 0
26 -38 -23 0
26 -38 -20 0
26 -38 43 0
26 -38 45 0
26 -38 17 -20 0
26 -38 -17 20 0
26 -38 2 -45 0
26 -38 -2 45 0
26 -38 6 -23 0
26 -38 -6 23 0
26 -38 49 -43 0
26 -38 -49 43 0
26 38 5 0
26 38 10 0
26 38 -1 0
26 38 -12 0
26 38 17 -10 0
26 38 -17 10 0
26 38 2 -12 0
26 38 -2 12 0
26 38 6 -5 0
26 38 -6 5 0
26 38 49 -1 0
26 38 -49 1 0
26 18 0
26 37 -17 0
26 -37 17 0
26 14 -2 0
26 -14 2 0
26 46 -6 0
26 -46 6 0
26 39 -49 0
26 -39 49 0
14 -34 0
-14 34 0
37 -46 0
-37 46 0
4 -22 0
-4 22 0
